impossibility(17,1,141).
impossibility(38,6,66).
impossibility(70,6,333).
impossibility(37,5,57).
impossibility(37,2,292).
impossibility(1,4,5).
impossibility(25,5,329).
impossibility(19,1,113).
impossibility(43,2,52).
impossibility(77,2,151).
impossibility(43,6,194).
impossibility(47,1,343).
impossibility(70,6,248).
impossibility(78,6,361).
impossibility(5,2,121).
impossibility(56,4,359).
impossibility(8,3,206).
impossibility(60,5,125).
impossibility(28,4,1).
impossibility(41,4,220).
impossibility(7,1,99).
impossibility(42,6,87).
impossibility(75,2,127).
impossibility(67,5,47).
impossibility(75,2,156).
impossibility(44,4,229).
impossibility(5,6,224).
impossibility(61,2,61).
impossibility(10,2,50).
impossibility(13,1,20).
impossibility(17,3,42).
impossibility(15,5,71).
impossibility(63,5,212).
impossibility(33,3,307).
impossibility(51,2,45).
impossibility(20,5,246).
impossibility(51,3,59).
impossibility(44,4,284).
impossibility(73,4,97).
impossibility(31,1,34).
impossibility(7,6,12).
impossibility(55,2,158).
impossibility(73,2,45).
impossibility(18,3,32).
impossibility(14,6,266).
impossibility(43,5,200).
impossibility(59,5,217).
impossibility(10,4,207).
impossibility(15,2,50).
impossibility(50,3,1).
impossibility(42,3,335).
impossibility(59,3,128).
impossibility(58,3,118).
impossibility(6,2,173).
impossibility(74,6,34).
impossibility(54,5,6).
impossibility(38,5,255).
impossibility(81,6,342).
impossibility(62,2,187).
impossibility(73,4,364).
impossibility(76,5,38).
impossibility(78,5,253).
impossibility(79,3,85).
impossibility(38,4,319).
impossibility(52,1,96).
impossibility(59,5,41).
impossibility(15,6,126).
impossibility(63,4,96).
impossibility(17,2,69).
impossibility(58,2,331).
impossibility(22,5,218).
impossibility(66,2,353).
impossibility(46,1,48).
impossibility(62,4,358).
impossibility(47,5,245).
impossibility(45,2,274).
impossibility(6,4,12).
impossibility(55,1,243).
impossibility(10,4,15).
impossibility(38,6,291).
impossibility(32,1,160).
impossibility(20,2,113).
impossibility(40,5,363).
impossibility(45,2,279).
impossibility(53,5,354).
impossibility(21,2,99).
impossibility(10,5,16).
impossibility(55,5,79).
impossibility(15,5,187).
impossibility(4,1,282).
impossibility(64,4,21).
impossibility(1,6,139).
impossibility(40,6,198).
impossibility(27,2,227).
impossibility(32,5,219).
impossibility(7,6,300).
impossibility(56,3,71).
impossibility(63,5,260).
impossibility(61,1,302).
impossibility(28,6,70).
impossibility(79,1,302).
impossibility(59,4,59).
impossibility(30,6,72).
impossibility(49,3,329).
impossibility(37,2,205).
impossibility(71,6,111).
impossibility(80,1,182).
impossibility(60,4,158).
impossibility(44,5,100).
impossibility(14,6,298).
impossibility(22,4,293).
impossibility(7,2,331).
impossibility(6,2,147).
impossibility(3,6,3).
impossibility(70,3,17).
impossibility(48,1,102).
impossibility(70,5,153).
impossibility(37,6,58).
impossibility(69,5,25).
impossibility(8,4,129).
impossibility(33,2,73).
impossibility(54,5,305).
impossibility(24,1,43).
impossibility(64,4,5).
impossibility(52,3,4).
impossibility(72,2,253).
impossibility(17,4,296).
impossibility(14,3,135).
impossibility(50,2,20).
impossibility(47,4,130).
impossibility(51,2,123).
impossibility(70,1,362).
impossibility(18,4,60).
impossibility(52,3,327).
impossibility(12,6,247).
impossibility(25,2,92).
impossibility(42,1,288).
impossibility(56,4,239).
impossibility(24,5,240).
impossibility(68,2,104).
impossibility(81,4,53).
impossibility(2,2,88).
impossibility(41,5,323).
impossibility(20,5,284).
impossibility(14,4,152).
impossibility(37,3,81).
impossibility(40,3,172).
impossibility(51,2,129).
impossibility(25,5,267).
impossibility(20,3,227).
impossibility(45,5,156).
impossibility(79,4,32).
impossibility(30,1,53).
impossibility(82,4,329).
impossibility(31,4,215).
impossibility(51,2,41).
impossibility(64,2,310).
impossibility(64,6,39).
impossibility(47,5,76).
impossibility(31,4,184).
impossibility(46,3,85).
impossibility(43,4,197).
impossibility(67,2,64).
impossibility(50,4,218).
impossibility(36,5,22).
impossibility(5,5,30).
impossibility(30,5,139).
impossibility(42,5,251).
impossibility(33,6,16).
impossibility(53,6,146).
impossibility(74,2,228).
impossibility(41,1,46).
impossibility(62,1,101).
impossibility(30,5,46).
impossibility(75,4,43).
impossibility(21,6,323).
impossibility(68,3,349).
impossibility(29,4,79).
impossibility(1,1,204).
impossibility(25,1,307).
impossibility(3,2,214).
impossibility(46,2,149).
impossibility(13,6,20).
impossibility(48,3,184).
impossibility(77,5,22).
impossibility(44,4,266).
impossibility(19,3,123).
impossibility(39,5,175).
impossibility(52,3,196).
impossibility(57,2,119).
impossibility(55,6,364).
impossibility(45,1,356).
impossibility(37,3,24).
impossibility(65,6,252).
impossibility(50,4,120).
impossibility(78,5,196).
impossibility(3,4,177).
impossibility(39,3,294).
impossibility(55,1,285).
impossibility(15,2,96).
impossibility(23,4,125).
impossibility(44,4,172).
impossibility(29,2,79).
impossibility(77,3,30).
impossibility(20,2,22).
impossibility(50,4,285).
impossibility(30,4,109).
impossibility(66,1,330).
impossibility(36,1,340).
impossibility(24,6,222).
impossibility(11,6,93).
impossibility(53,2,108).
impossibility(69,4,198).
impossibility(2,6,106).
impossibility(74,4,25).
impossibility(79,5,147).
impossibility(81,3,327).
impossibility(35,1,50).
impossibility(60,2,213).
impossibility(75,2,250).
impossibility(68,6,178).
impossibility(41,1,343).
impossibility(11,4,79).
impossibility(36,4,31).
impossibility(66,6,188).
impossibility(76,5,317).
impossibility(19,2,173).
impossibility(59,5,282).
impossibility(38,6,162).
impossibility(32,2,196).
impossibility(41,4,209).
impossibility(7,2,65).
impossibility(41,3,183).
impossibility(55,5,230).
impossibility(35,3,156).
impossibility(63,6,161).
impossibility(54,2,80).
impossibility(60,2,303).
impossibility(31,5,147).
impossibility(25,1,101).
impossibility(54,6,303).
impossibility(32,3,233).
impossibility(27,3,209).
impossibility(48,4,44).
impossibility(67,4,326).
impossibility(32,4,47).
impossibility(32,1,239).
impossibility(51,6,19).
impossibility(23,1,273).
impossibility(56,1,80).
impossibility(22,4,6).
impossibility(14,2,81).
impossibility(33,2,82).
impossibility(5,6,358).
impossibility(73,6,305).
impossibility(42,2,192).
impossibility(6,1,116).
impossibility(15,5,77).
impossibility(52,2,351).
impossibility(10,3,89).
impossibility(5,3,277).
impossibility(56,6,159).
impossibility(25,5,341).
impossibility(76,2,45).
impossibility(17,1,282).
impossibility(63,1,42).
impossibility(73,5,128).
impossibility(63,1,57).
impossibility(57,6,268).
impossibility(14,1,280).
impossibility(39,1,257).
impossibility(82,4,331).
impossibility(3,4,258).
impossibility(29,6,228).
impossibility(22,4,76).
impossibility(38,3,218).
impossibility(44,4,71).
impossibility(50,1,125).
impossibility(45,2,118).
impossibility(82,6,70).
impossibility(9,1,20).
impossibility(36,4,90).
impossibility(40,1,247).
impossibility(29,4,169).
impossibility(67,2,162).
impossibility(65,2,336).
impossibility(41,5,81).
impossibility(60,4,144).
impossibility(26,6,282).
impossibility(29,6,199).
impossibility(14,6,343).
impossibility(8,3,217).
impossibility(17,1,275).
impossibility(55,6,152).
impossibility(50,2,80).
impossibility(80,4,259).
impossibility(61,2,232).
impossibility(30,6,30).
impossibility(62,1,202).
impossibility(9,2,252).
impossibility(29,5,248).
impossibility(67,4,334).
impossibility(70,4,162).
impossibility(38,2,178).
impossibility(7,1,178).
impossibility(30,5,135).
impossibility(11,2,333).
impossibility(48,6,27).
impossibility(61,5,169).
impossibility(16,5,310).
impossibility(34,5,355).
impossibility(45,3,185).
impossibility(15,3,14).
impossibility(72,3,16).
impossibility(22,3,46).
impossibility(7,5,209).
impossibility(9,2,190).
impossibility(36,6,109).
impossibility(45,3,212).
impossibility(15,3,215).
impossibility(39,4,116).
impossibility(41,4,176).
impossibility(9,5,182).
impossibility(43,5,309).
impossibility(82,4,307).
impossibility(20,5,365).
impossibility(81,1,55).
impossibility(1,5,265).
impossibility(15,3,279).
impossibility(18,4,282).
impossibility(13,2,143).
impossibility(63,4,14).
impossibility(7,4,312).
impossibility(72,1,143).
impossibility(19,2,63).
impossibility(77,3,176).
impossibility(51,2,234).
impossibility(1,6,242).
impossibility(20,5,139).
impossibility(31,1,185).
impossibility(75,6,337).
impossibility(18,6,168).
impossibility(75,4,242).
impossibility(23,6,219).
impossibility(7,6,81).
impossibility(72,4,332).
impossibility(10,4,274).
impossibility(2,4,198).
impossibility(23,6,129).
impossibility(52,5,62).
impossibility(80,3,157).
impossibility(38,5,243).
impossibility(44,6,247).
impossibility(5,4,14).
impossibility(59,4,348).
impossibility(36,1,269).
impossibility(3,5,132).
impossibility(57,4,168).
impossibility(42,5,138).
impossibility(30,6,98).
impossibility(54,2,65).
impossibility(67,4,240).
impossibility(50,6,72).
impossibility(1,2,269).
impossibility(60,2,82).
impossibility(5,5,189).
impossibility(41,2,133).
impossibility(1,2,67).
impossibility(56,4,214).
impossibility(66,2,149).
impossibility(6,2,350).
impossibility(15,2,107).
impossibility(80,1,356).
impossibility(67,2,126).
impossibility(60,3,53).
impossibility(31,4,249).
impossibility(46,6,60).
impossibility(7,2,57).
impossibility(15,6,108).
impossibility(22,2,112).
impossibility(62,4,35).
impossibility(1,1,278).
impossibility(11,5,279).
impossibility(51,3,228).
impossibility(62,6,7).
impossibility(74,1,212).
impossibility(82,1,146).
impossibility(47,5,82).
impossibility(51,3,300).
impossibility(49,2,342).
impossibility(42,1,231).
impossibility(58,4,160).
impossibility(53,1,181).
impossibility(47,6,212).
impossibility(58,6,176).
impossibility(57,2,183).
impossibility(7,1,321).
impossibility(63,5,326).
impossibility(53,4,215).
impossibility(26,5,334).
impossibility(79,3,41).
impossibility(33,4,324).
impossibility(38,3,45).
impossibility(4,1,194).
impossibility(36,4,96).
impossibility(61,6,250).
impossibility(38,1,338).
impossibility(80,4,359).
impossibility(26,4,143).
impossibility(34,3,267).
impossibility(17,3,231).
impossibility(14,6,125).
impossibility(29,3,22).
impossibility(29,5,148).
impossibility(74,1,7).
impossibility(24,1,132).
impossibility(18,2,313).
impossibility(72,2,111).
impossibility(51,1,159).
impossibility(33,5,202).
impossibility(43,6,31).
impossibility(77,4,78).
impossibility(36,6,327).
impossibility(58,5,50).
impossibility(80,6,32).
impossibility(43,1,337).
impossibility(49,3,292).
impossibility(51,2,56).
impossibility(19,1,100).
impossibility(63,4,211).
impossibility(71,2,10).
impossibility(77,3,40).
impossibility(45,2,258).
impossibility(63,2,326).
impossibility(58,1,153).
impossibility(82,6,333).
impossibility(70,5,148).
impossibility(31,5,358).
impossibility(74,2,180).
impossibility(15,1,198).
impossibility(9,5,192).
impossibility(20,1,206).
impossibility(15,6,305).
impossibility(35,3,67).
impossibility(56,3,40).
impossibility(63,4,220).
impossibility(75,1,80).
impossibility(53,2,2).
impossibility(43,2,164).
impossibility(28,5,308).
impossibility(48,5,175).
impossibility(31,3,224).
impossibility(53,1,223).
impossibility(26,2,61).
impossibility(39,4,20).
impossibility(16,6,79).
impossibility(28,3,176).
impossibility(25,6,57).
impossibility(40,3,328).
impossibility(2,3,64).
impossibility(41,2,130).
impossibility(35,5,150).
impossibility(46,1,110).
impossibility(69,1,69).
impossibility(35,4,31).
impossibility(75,2,37).
impossibility(54,1,253).
impossibility(48,1,234).
impossibility(25,2,342).
impossibility(76,5,235).
impossibility(43,5,90).
impossibility(78,3,8).
impossibility(69,4,343).
impossibility(57,1,304).
impossibility(76,5,285).
impossibility(56,2,253).
impossibility(18,2,49).
impossibility(38,5,187).
impossibility(15,3,147).
impossibility(28,2,182).
impossibility(8,3,267).
impossibility(33,4,107).
impossibility(26,4,61).
impossibility(2,6,271).
impossibility(20,3,341).
impossibility(69,2,351).
impossibility(70,6,165).
impossibility(80,1,120).
impossibility(23,3,228).
impossibility(10,3,167).
impossibility(30,4,66).
impossibility(59,1,292).
impossibility(1,3,333).
impossibility(3,5,16).
impossibility(43,1,2).
impossibility(17,5,314).
impossibility(24,2,8).
impossibility(25,4,71).
impossibility(12,5,30).
impossibility(53,6,223).
impossibility(61,1,70).
impossibility(57,2,351).
impossibility(61,3,43).
impossibility(10,5,144).
impossibility(48,2,65).
impossibility(34,3,40).
impossibility(82,3,265).
impossibility(10,1,348).
impossibility(39,1,326).
impossibility(39,5,223).
impossibility(11,1,245).
impossibility(55,1,48).
impossibility(39,2,341).
impossibility(62,5,135).
impossibility(20,6,244).
impossibility(28,4,213).
impossibility(29,2,175).
impossibility(81,5,42).
impossibility(46,2,193).
impossibility(72,4,48).
impossibility(50,1,299).
impossibility(6,3,233).
impossibility(52,3,185).
impossibility(57,6,204).
impossibility(50,4,224).
impossibility(18,4,122).
impossibility(77,1,134).
impossibility(21,4,212).
impossibility(8,5,110).
impossibility(19,4,63).
impossibility(1,6,188).
impossibility(44,1,360).
impossibility(24,2,334).
impossibility(4,4,286).
impossibility(70,4,241).
impossibility(57,4,78).
impossibility(62,5,17).
impossibility(56,1,55).
impossibility(7,1,62).
impossibility(44,2,139).
impossibility(78,3,261).
impossibility(33,4,183).
impossibility(22,5,154).
impossibility(67,5,213).
impossibility(13,1,192).
impossibility(35,2,262).
impossibility(21,4,36).
impossibility(41,6,156).
impossibility(7,4,107).
impossibility(54,3,201).
impossibility(36,4,184).
impossibility(29,1,72).
impossibility(26,2,39).
impossibility(27,1,75).
impossibility(18,2,129).
impossibility(73,1,347).
impossibility(11,1,25).
impossibility(8,5,124).
impossibility(39,3,114).
impossibility(52,2,319).
impossibility(66,3,343).
impossibility(53,6,224).
impossibility(62,5,64).
impossibility(44,5,302).
impossibility(51,3,22).
impossibility(80,2,311).
impossibility(70,3,272).
impossibility(50,1,182).
impossibility(20,1,159).
impossibility(58,4,107).
impossibility(58,4,19).
impossibility(54,5,329).
impossibility(58,1,69).
impossibility(79,4,45).
impossibility(31,1,324).
impossibility(3,1,341).
impossibility(39,3,12).
impossibility(70,2,166).
impossibility(22,1,75).
impossibility(32,2,112).
impossibility(18,3,325).
impossibility(32,5,40).
impossibility(10,1,138).
impossibility(21,3,275).
impossibility(16,3,163).
impossibility(15,4,45).
impossibility(7,1,260).
impossibility(43,3,365).
impossibility(53,1,28).
impossibility(63,4,44).
impossibility(8,4,76).
impossibility(62,4,51).
impossibility(80,5,109).
impossibility(20,5,249).
impossibility(23,1,153).
impossibility(38,6,142).
impossibility(10,3,177).
impossibility(20,4,210).
impossibility(55,5,232).
impossibility(40,1,251).
impossibility(42,2,215).
impossibility(74,3,6).
impossibility(26,2,283).
impossibility(43,5,320).
impossibility(9,6,245).
impossibility(10,5,70).
impossibility(1,1,220).
impossibility(41,5,282).
impossibility(42,4,90).
impossibility(46,4,208).
impossibility(37,6,338).
impossibility(11,6,200).
impossibility(52,5,80).
impossibility(80,3,295).
impossibility(77,1,238).
impossibility(14,1,231).
impossibility(53,5,149).
impossibility(66,6,94).
impossibility(38,4,228).
impossibility(31,4,347).
impossibility(4,4,199).
impossibility(57,4,243).
impossibility(3,5,153).
impossibility(77,5,206).
impossibility(42,2,353).
impossibility(53,4,29).
impossibility(17,6,236).
impossibility(4,6,100).
impossibility(76,6,137).
impossibility(74,5,192).
impossibility(14,5,60).
impossibility(76,1,300).
impossibility(57,3,22).
impossibility(28,5,102).
impossibility(23,5,310).
impossibility(43,5,226).
impossibility(3,1,176).
impossibility(65,6,48).
impossibility(12,2,361).
impossibility(28,3,249).
impossibility(72,2,135).
impossibility(3,5,235).
impossibility(5,3,344).
impossibility(71,4,197).
impossibility(21,4,230).
impossibility(41,5,104).
impossibility(32,4,82).
impossibility(17,6,76).
impossibility(65,2,74).
impossibility(1,3,178).
impossibility(45,5,227).
impossibility(71,4,289).
impossibility(19,2,277).
impossibility(10,5,192).
impossibility(20,4,256).
impossibility(18,4,50).
impossibility(56,3,82).
impossibility(9,2,135).
impossibility(47,1,101).
impossibility(67,6,285).
impossibility(74,4,131).
impossibility(70,4,116).
impossibility(26,6,33).
impossibility(8,4,173).
impossibility(77,6,163).
impossibility(50,4,108).
impossibility(13,1,226).
impossibility(36,4,48).
impossibility(8,3,273).
impossibility(47,5,124).
impossibility(44,5,195).
impossibility(54,5,102).
impossibility(46,4,26).
impossibility(1,3,190).
impossibility(78,2,149).
impossibility(78,1,123).
impossibility(75,1,214).
impossibility(8,2,30).
impossibility(25,1,70).
impossibility(13,3,16).
impossibility(15,1,82).
impossibility(37,2,4).
impossibility(1,3,246).
impossibility(11,4,64).
impossibility(4,4,62).
impossibility(78,5,16).
impossibility(81,3,22).
impossibility(45,6,56).
impossibility(8,5,249).
impossibility(65,1,195).
impossibility(28,6,88).
impossibility(4,2,12).
impossibility(61,6,13).
impossibility(62,5,269).
impossibility(56,1,252).
impossibility(30,3,252).
impossibility(33,1,224).
impossibility(38,3,150).
impossibility(65,3,125).
impossibility(36,6,136).
impossibility(39,2,212).
impossibility(82,4,145).
impossibility(37,1,253).
impossibility(25,6,41).
impossibility(47,4,307).
impossibility(24,6,313).
impossibility(50,4,235).
impossibility(62,2,78).
impossibility(62,4,264).
impossibility(36,2,223).
impossibility(14,1,229).
impossibility(7,2,206).
impossibility(48,4,119).
impossibility(16,3,257).
impossibility(65,6,361).
impossibility(80,6,125).
impossibility(71,1,275).
impossibility(44,5,360).
impossibility(45,6,210).
impossibility(70,4,163).
impossibility(23,4,167).
impossibility(68,3,59).
impossibility(56,4,61).
impossibility(26,2,362).
impossibility(24,3,270).
impossibility(16,5,38).
impossibility(73,5,364).
impossibility(36,1,166).
impossibility(4,3,205).
impossibility(39,1,62).
impossibility(21,6,59).
impossibility(70,4,105).
impossibility(56,1,136).
impossibility(76,5,142).
impossibility(30,5,150).
impossibility(66,1,124).
impossibility(80,1,80).
impossibility(62,4,353).
impossibility(36,4,131).
impossibility(64,2,349).
impossibility(55,6,115).
impossibility(71,3,323).
impossibility(10,3,306).
impossibility(24,5,80).
impossibility(74,1,170).
impossibility(29,5,290).
impossibility(59,6,133).
impossibility(30,1,2).
impossibility(82,4,76).
impossibility(75,1,249).
impossibility(29,2,301).
impossibility(26,5,5).
impossibility(82,2,17).
impossibility(34,4,289).
impossibility(59,1,178).
impossibility(7,2,295).
impossibility(58,3,304).
impossibility(35,3,330).
impossibility(46,6,300).
impossibility(16,1,346).
impossibility(22,3,95).
impossibility(34,6,52).
impossibility(3,6,97).
impossibility(52,1,151).
impossibility(25,5,254).
impossibility(5,5,327).
impossibility(32,6,155).
impossibility(44,3,151).
impossibility(1,6,282).
impossibility(38,5,215).
impossibility(50,5,177).
impossibility(13,6,312).
impossibility(73,1,140).
impossibility(66,4,54).
impossibility(61,2,90).
impossibility(30,1,155).
impossibility(49,1,229).
impossibility(4,3,310).
impossibility(46,2,176).
impossibility(67,1,280).
impossibility(40,5,354).
impossibility(40,1,265).
impossibility(18,1,286).
impossibility(40,5,29).
impossibility(58,4,78).
impossibility(27,4,21).
impossibility(68,1,47).
impossibility(50,2,68).
impossibility(3,4,358).
impossibility(4,5,54).
impossibility(77,3,296).
impossibility(7,3,342).
impossibility(7,1,93).
impossibility(50,2,129).
impossibility(62,2,361).
impossibility(25,3,127).
impossibility(82,5,183).
impossibility(79,2,113).
impossibility(7,5,359).
impossibility(67,3,84).
impossibility(57,4,29).
impossibility(4,6,277).
impossibility(46,4,257).
impossibility(27,3,261).
impossibility(24,1,71).
impossibility(45,5,333).
impossibility(30,5,26).
impossibility(14,1,83).
impossibility(65,6,359).
impossibility(4,1,192).