impossibility(17,1,141).
impossibility(38,6,66).
impossibility(70,6,333).
impossibility(37,5,57).
impossibility(37,2,292).
impossibility(1,4,5).
impossibility(25,5,329).
impossibility(19,1,113).
impossibility(43,2,52).
impossibility(77,2,151).
impossibility(43,6,194).
impossibility(47,1,343).
impossibility(70,6,248).
impossibility(78,6,361).
impossibility(5,2,121).
impossibility(56,4,359).
impossibility(8,3,206).
impossibility(60,5,125).
impossibility(28,4,1).
impossibility(41,4,220).
impossibility(7,1,99).
impossibility(42,6,87).
impossibility(75,2,127).
impossibility(67,5,47).
impossibility(75,2,156).
impossibility(44,4,229).
impossibility(5,6,224).
impossibility(61,2,61).
impossibility(10,2,50).
impossibility(13,1,20).