impossibility(17,1,141).
impossibility(38,6,66).
impossibility(70,6,333).
impossibility(37,5,57).
impossibility(37,2,292).
impossibility(1,4,5).
impossibility(25,5,329).
impossibility(19,1,113).
impossibility(43,2,52).
impossibility(77,2,151).
impossibility(43,6,194).
impossibility(47,1,343).
impossibility(70,6,248).
impossibility(78,6,361).
impossibility(5,2,121).
impossibility(56,4,359).
impossibility(8,3,206).
impossibility(60,5,125).
impossibility(28,4,1).
impossibility(41,4,220).
impossibility(7,1,99).
impossibility(42,6,87).
impossibility(75,2,127).
impossibility(67,5,47).
impossibility(75,2,156).
impossibility(44,4,229).
impossibility(5,6,224).
impossibility(61,2,61).
impossibility(10,2,50).
impossibility(13,1,20).
impossibility(17,3,42).
impossibility(15,5,71).
impossibility(63,5,212).
impossibility(33,3,307).
impossibility(51,2,45).
impossibility(20,5,246).
impossibility(51,3,59).
impossibility(44,4,284).
impossibility(73,4,97).
impossibility(31,1,34).
impossibility(7,6,12).
impossibility(55,2,158).
impossibility(73,2,45).
impossibility(18,3,32).
impossibility(14,6,266).
impossibility(43,5,200).
impossibility(59,5,217).
impossibility(10,4,207).
impossibility(15,2,50).
impossibility(50,3,1).
impossibility(42,3,335).
impossibility(59,3,128).
impossibility(58,3,118).
impossibility(6,2,173).
impossibility(74,6,34).
impossibility(54,5,6).
impossibility(38,5,255).
impossibility(81,6,342).
impossibility(62,2,187).
impossibility(73,4,364).
impossibility(76,5,38).
impossibility(78,5,253).
impossibility(79,3,85).
impossibility(38,4,319).
impossibility(52,1,96).
impossibility(59,5,41).
impossibility(15,6,126).
impossibility(63,4,96).
impossibility(17,2,69).
impossibility(58,2,331).
impossibility(22,5,218).
impossibility(66,2,353).
impossibility(46,1,48).
impossibility(62,4,358).
impossibility(47,5,245).
impossibility(45,2,274).
impossibility(6,4,12).
impossibility(55,1,243).
impossibility(10,4,15).
impossibility(38,6,291).