impossibility(17,1,141).
impossibility(38,6,66).
impossibility(70,6,333).
impossibility(37,5,57).
impossibility(37,2,292).
impossibility(1,4,5).
impossibility(25,5,329).
impossibility(19,1,113).
impossibility(43,2,52).
impossibility(77,2,151).
impossibility(43,6,194).
impossibility(47,1,343).
impossibility(70,6,248).
impossibility(78,6,361).
impossibility(5,2,121).
impossibility(56,4,359).
impossibility(8,3,206).
impossibility(60,5,125).
impossibility(28,4,1).
impossibility(41,4,220).
impossibility(7,1,99).
impossibility(42,6,87).
impossibility(75,2,127).
impossibility(67,5,47).
impossibility(75,2,156).
impossibility(44,4,229).
impossibility(5,6,224).
impossibility(61,2,61).
impossibility(10,2,50).
impossibility(13,1,20).
impossibility(17,3,42).
impossibility(15,5,71).
impossibility(63,5,212).
impossibility(33,3,307).
impossibility(51,2,45).
impossibility(20,5,246).
impossibility(51,3,59).
impossibility(44,4,284).
impossibility(73,4,97).
impossibility(31,1,34).
impossibility(7,6,12).
impossibility(55,2,158).
impossibility(73,2,45).
impossibility(18,3,32).
impossibility(14,6,266).
impossibility(43,5,200).
impossibility(59,5,217).
impossibility(10,4,207).
impossibility(15,2,50).
impossibility(50,3,1).
impossibility(42,3,335).
impossibility(59,3,128).
impossibility(58,3,118).
impossibility(6,2,173).
impossibility(74,6,34).
impossibility(54,5,6).
impossibility(38,5,255).
impossibility(81,6,342).
impossibility(62,2,187).
impossibility(73,4,364).
impossibility(76,5,38).
impossibility(78,5,253).
impossibility(79,3,85).
impossibility(38,4,319).
impossibility(52,1,96).
impossibility(59,5,41).
impossibility(15,6,126).
impossibility(63,4,96).
impossibility(17,2,69).
impossibility(58,2,331).
impossibility(22,5,218).
impossibility(66,2,353).
impossibility(46,1,48).
impossibility(62,4,358).
impossibility(47,5,245).
impossibility(45,2,274).
impossibility(6,4,12).
impossibility(55,1,243).
impossibility(10,4,15).
impossibility(38,6,291).
impossibility(32,1,160).
impossibility(20,2,113).
impossibility(40,5,363).
impossibility(45,2,279).
impossibility(53,5,354).
impossibility(21,2,99).
impossibility(10,5,16).
impossibility(55,5,79).
impossibility(15,5,187).
impossibility(4,1,282).
impossibility(64,4,21).
impossibility(1,6,139).
impossibility(40,6,198).
impossibility(27,2,227).
impossibility(32,5,219).
impossibility(7,6,300).
impossibility(56,3,71).
impossibility(63,5,260).
impossibility(61,1,302).
impossibility(28,6,70).
impossibility(79,1,302).
impossibility(59,4,59).
impossibility(30,6,72).
impossibility(49,3,329).
impossibility(37,2,205).
impossibility(71,6,111).
impossibility(80,1,182).
impossibility(60,4,158).
impossibility(44,5,100).
impossibility(14,6,298).
impossibility(22,4,293).
impossibility(7,2,331).
impossibility(6,2,147).
impossibility(3,6,3).
impossibility(70,3,17).
impossibility(48,1,102).
impossibility(70,5,153).
impossibility(37,6,58).
impossibility(69,5,25).
impossibility(8,4,129).
impossibility(33,2,73).
impossibility(54,5,305).
impossibility(24,1,43).
impossibility(64,4,5).
impossibility(52,3,4).
impossibility(72,2,253).
impossibility(17,4,296).
impossibility(14,3,135).
impossibility(50,2,20).
impossibility(47,4,130).
impossibility(51,2,123).
impossibility(70,1,362).
impossibility(18,4,60).
impossibility(52,3,327).
impossibility(12,6,247).
impossibility(25,2,92).
impossibility(42,1,288).
impossibility(56,4,239).
impossibility(24,5,240).
impossibility(68,2,104).
impossibility(81,4,53).
impossibility(2,2,88).
impossibility(41,5,323).
impossibility(20,5,284).
impossibility(14,4,152).
impossibility(37,3,81).
impossibility(40,3,172).
impossibility(51,2,129).
impossibility(25,5,267).
impossibility(20,3,227).
impossibility(45,5,156).
impossibility(79,4,32).
impossibility(30,1,53).
impossibility(82,4,329).
impossibility(31,4,215).
impossibility(51,2,41).
impossibility(64,2,310).
impossibility(64,6,39).
impossibility(47,5,76).
impossibility(31,4,184).
impossibility(46,3,85).
impossibility(43,4,197).
impossibility(67,2,64).
impossibility(50,4,218).
impossibility(36,5,22).
impossibility(5,5,30).
impossibility(30,5,139).
impossibility(42,5,251).
impossibility(33,6,16).
impossibility(53,6,146).
impossibility(74,2,228).
impossibility(41,1,46).
impossibility(62,1,101).
impossibility(30,5,46).
impossibility(75,4,43).
impossibility(21,6,323).
impossibility(68,3,349).
impossibility(29,4,79).
impossibility(1,1,204).
impossibility(25,1,307).
impossibility(3,2,214).
impossibility(46,2,149).
impossibility(13,6,20).
impossibility(48,3,184).
impossibility(77,5,22).
impossibility(44,4,266).
impossibility(19,3,123).
impossibility(39,5,175).
impossibility(52,3,196).
impossibility(57,2,119).
impossibility(55,6,364).
impossibility(45,1,356).
impossibility(37,3,24).
impossibility(65,6,252).
impossibility(50,4,120).
impossibility(78,5,196).
impossibility(3,4,177).
impossibility(39,3,294).
impossibility(55,1,285).
impossibility(15,2,96).
impossibility(23,4,125).
impossibility(44,4,172).
impossibility(29,2,79).
impossibility(77,3,30).
impossibility(20,2,22).
impossibility(50,4,285).
impossibility(30,4,109).
impossibility(66,1,330).
impossibility(36,1,340).
impossibility(24,6,222).
impossibility(11,6,93).
impossibility(53,2,108).
impossibility(69,4,198).
impossibility(2,6,106).
impossibility(74,4,25).
impossibility(79,5,147).
impossibility(81,3,327).
impossibility(35,1,50).
impossibility(60,2,213).
impossibility(75,2,250).
impossibility(68,6,178).
impossibility(41,1,343).
impossibility(11,4,79).
impossibility(36,4,31).
impossibility(66,6,188).
impossibility(76,5,317).
impossibility(19,2,173).
impossibility(59,5,282).
impossibility(38,6,162).
impossibility(32,2,196).
impossibility(41,4,209).
impossibility(7,2,65).
impossibility(41,3,183).
impossibility(55,5,230).
impossibility(35,3,156).
impossibility(63,6,161).
impossibility(54,2,80).
impossibility(60,2,303).
impossibility(31,5,147).
impossibility(25,1,101).
impossibility(54,6,303).
impossibility(32,3,233).
impossibility(27,3,209).
impossibility(48,4,44).
impossibility(67,4,326).
impossibility(32,4,47).
impossibility(32,1,239).
impossibility(51,6,19).
impossibility(23,1,273).
impossibility(56,1,80).
impossibility(22,4,6).
impossibility(14,2,81).
impossibility(33,2,82).
impossibility(5,6,358).
impossibility(73,6,305).
impossibility(42,2,192).
impossibility(6,1,116).
impossibility(15,5,77).
impossibility(52,2,351).
impossibility(10,3,89).
impossibility(5,3,277).
impossibility(56,6,159).
impossibility(25,5,341).
impossibility(76,2,45).
impossibility(17,1,282).
impossibility(63,1,42).
impossibility(73,5,128).
impossibility(63,1,57).
impossibility(57,6,268).
impossibility(14,1,280).
impossibility(39,1,257).
impossibility(82,4,331).
impossibility(3,4,258).
impossibility(29,6,228).
impossibility(22,4,76).
impossibility(38,3,218).
impossibility(44,4,71).
impossibility(50,1,125).
impossibility(45,2,118).
impossibility(82,6,70).
impossibility(9,1,20).
impossibility(36,4,90).
impossibility(40,1,247).
impossibility(29,4,169).
impossibility(67,2,162).
impossibility(65,2,336).
impossibility(41,5,81).
impossibility(60,4,144).
impossibility(26,6,282).
impossibility(29,6,199).
impossibility(14,6,343).
impossibility(8,3,217).
impossibility(17,1,275).
impossibility(55,6,152).
impossibility(50,2,80).
impossibility(80,4,259).
impossibility(61,2,232).
impossibility(30,6,30).
impossibility(62,1,202).
impossibility(9,2,252).
impossibility(29,5,248).
impossibility(67,4,334).
impossibility(70,4,162).
impossibility(38,2,178).
impossibility(7,1,178).
impossibility(30,5,135).
impossibility(11,2,333).
impossibility(48,6,27).
impossibility(61,5,169).
impossibility(16,5,310).
impossibility(34,5,355).
impossibility(45,3,185).
impossibility(15,3,14).
impossibility(72,3,16).
impossibility(22,3,46).
impossibility(7,5,209).
impossibility(9,2,190).
impossibility(36,6,109).
impossibility(45,3,212).
impossibility(15,3,215).
impossibility(39,4,116).
impossibility(41,4,176).
impossibility(9,5,182).
impossibility(43,5,309).
impossibility(82,4,307).
impossibility(20,5,365).
impossibility(81,1,55).
impossibility(1,5,265).
impossibility(15,3,279).
impossibility(18,4,282).
impossibility(13,2,143).
impossibility(63,4,14).
impossibility(7,4,312).
impossibility(72,1,143).
impossibility(19,2,63).
impossibility(77,3,176).
impossibility(51,2,234).
impossibility(1,6,242).
impossibility(20,5,139).
impossibility(31,1,185).
impossibility(75,6,337).
impossibility(18,6,168).
impossibility(75,4,242).
impossibility(23,6,219).
impossibility(7,6,81).
impossibility(72,4,332).
impossibility(10,4,274).
impossibility(2,4,198).
impossibility(23,6,129).
impossibility(52,5,62).
impossibility(80,3,157).
impossibility(38,5,243).
impossibility(44,6,247).
impossibility(5,4,14).
impossibility(59,4,348).
impossibility(36,1,269).
impossibility(3,5,132).
impossibility(57,4,168).
impossibility(42,5,138).
impossibility(30,6,98).
impossibility(54,2,65).
impossibility(67,4,240).
impossibility(50,6,72).
impossibility(1,2,269).
impossibility(60,2,82).
impossibility(5,5,189).
impossibility(41,2,133).
impossibility(1,2,67).
impossibility(56,4,214).
impossibility(66,2,149).
impossibility(6,2,350).
impossibility(15,2,107).
impossibility(80,1,356).
impossibility(67,2,126).
impossibility(60,3,53).
impossibility(31,4,249).
impossibility(46,6,60).
impossibility(7,2,57).
impossibility(15,6,108).
impossibility(22,2,112).
impossibility(62,4,35).
impossibility(1,1,278).
impossibility(11,5,279).
impossibility(51,3,228).
impossibility(62,6,7).
impossibility(74,1,212).
impossibility(82,1,146).
impossibility(47,5,82).
impossibility(51,3,300).
impossibility(49,2,342).
impossibility(42,1,231).
impossibility(58,4,160).
impossibility(53,1,181).
impossibility(47,6,212).
impossibility(58,6,176).
impossibility(57,2,183).
impossibility(7,1,321).
impossibility(63,5,326).
impossibility(53,4,215).
impossibility(26,5,334).