impossibility(17,1,141).
impossibility(38,6,66).
impossibility(70,6,333).
impossibility(37,5,57).
impossibility(37,2,292).
impossibility(1,4,5).
impossibility(25,5,329).
impossibility(19,1,113).
impossibility(43,2,52).
impossibility(77,2,151).
impossibility(43,6,194).
impossibility(47,1,343).
impossibility(70,6,248).
impossibility(78,6,361).
impossibility(5,2,121).
impossibility(56,4,359).
impossibility(8,3,206).
impossibility(60,5,125).
impossibility(28,4,1).
impossibility(41,4,220).
impossibility(7,1,99).
impossibility(42,6,87).
impossibility(75,2,127).
impossibility(67,5,47).
impossibility(75,2,156).
impossibility(44,4,229).
impossibility(5,6,224).
impossibility(61,2,61).
impossibility(10,2,50).
impossibility(13,1,20).
impossibility(17,3,42).
impossibility(15,5,71).
impossibility(63,5,212).
impossibility(33,3,307).
impossibility(51,2,45).
impossibility(20,5,246).
impossibility(51,3,59).
impossibility(44,4,284).
impossibility(73,4,97).
impossibility(31,1,34).
impossibility(7,6,12).
impossibility(55,2,158).
impossibility(73,2,45).
impossibility(18,3,32).
impossibility(14,6,266).
impossibility(43,5,200).
impossibility(59,5,217).
impossibility(10,4,207).
impossibility(15,2,50).
impossibility(50,3,1).
impossibility(42,3,335).
impossibility(59,3,128).
impossibility(58,3,118).
impossibility(6,2,173).
impossibility(74,6,34).
impossibility(54,5,6).
impossibility(38,5,255).
impossibility(81,6,342).
impossibility(62,2,187).
impossibility(73,4,364).
impossibility(76,5,38).
impossibility(78,5,253).
impossibility(79,3,85).
impossibility(38,4,319).
impossibility(52,1,96).
impossibility(59,5,41).
impossibility(15,6,126).
impossibility(63,4,96).
impossibility(17,2,69).
impossibility(58,2,331).
impossibility(22,5,218).
impossibility(66,2,353).
impossibility(46,1,48).
impossibility(62,4,358).
impossibility(47,5,245).
impossibility(45,2,274).
impossibility(6,4,12).
impossibility(55,1,243).
impossibility(10,4,15).
impossibility(38,6,291).
impossibility(32,1,160).
impossibility(20,2,113).
impossibility(40,5,363).
impossibility(45,2,279).
impossibility(53,5,354).
impossibility(21,2,99).
impossibility(10,5,16).
impossibility(55,5,79).
impossibility(15,5,187).
impossibility(4,1,282).
impossibility(64,4,21).
impossibility(1,6,139).
impossibility(40,6,198).
impossibility(27,2,227).
impossibility(32,5,219).
impossibility(7,6,300).
impossibility(56,3,71).
impossibility(63,5,260).
impossibility(61,1,302).
impossibility(28,6,70).
impossibility(79,1,302).
impossibility(59,4,59).
impossibility(30,6,72).
impossibility(49,3,329).
impossibility(37,2,205).
impossibility(71,6,111).
impossibility(80,1,182).
impossibility(60,4,158).
impossibility(44,5,100).
impossibility(14,6,298).
impossibility(22,4,293).
impossibility(7,2,331).
impossibility(6,2,147).
impossibility(3,6,3).
impossibility(70,3,17).
impossibility(48,1,102).
impossibility(70,5,153).
impossibility(37,6,58).
impossibility(69,5,25).
impossibility(8,4,129).
impossibility(33,2,73).
impossibility(54,5,305).
impossibility(24,1,43).
impossibility(64,4,5).
impossibility(52,3,4).
impossibility(72,2,253).
impossibility(17,4,296).
impossibility(14,3,135).
impossibility(50,2,20).
impossibility(47,4,130).
impossibility(51,2,123).
impossibility(70,1,362).
impossibility(18,4,60).
impossibility(52,3,327).
impossibility(12,6,247).
impossibility(25,2,92).
impossibility(42,1,288).
impossibility(56,4,239).
impossibility(24,5,240).
impossibility(68,2,104).
impossibility(81,4,53).
impossibility(2,2,88).
impossibility(41,5,323).
impossibility(20,5,284).
impossibility(14,4,152).
impossibility(37,3,81).
impossibility(40,3,172).
impossibility(51,2,129).
impossibility(25,5,267).
impossibility(20,3,227).
impossibility(45,5,156).
impossibility(79,4,32).
impossibility(30,1,53).
impossibility(82,4,329).
impossibility(31,4,215).
impossibility(51,2,41).
impossibility(64,2,310).
impossibility(64,6,39).
impossibility(47,5,76).
impossibility(31,4,184).
impossibility(46,3,85).
impossibility(43,4,197).
impossibility(67,2,64).
impossibility(50,4,218).
impossibility(36,5,22).
impossibility(5,5,30).
impossibility(30,5,139).
impossibility(42,5,251).
impossibility(33,6,16).
impossibility(53,6,146).
impossibility(74,2,228).
impossibility(41,1,46).
impossibility(62,1,101).
impossibility(30,5,46).
impossibility(75,4,43).
impossibility(21,6,323).
impossibility(68,3,349).
impossibility(29,4,79).
impossibility(1,1,204).
impossibility(25,1,307).
impossibility(3,2,214).
impossibility(46,2,149).
impossibility(13,6,20).
impossibility(48,3,184).
impossibility(77,5,22).
impossibility(44,4,266).
impossibility(19,3,123).
impossibility(39,5,175).
impossibility(52,3,196).
impossibility(57,2,119).