impossibility(22,5,68).
impossibility(24,6,182).
impossibility(9,1,53).
impossibility(16,5,81).
impossibility(24,3,79).
impossibility(36,1,69).
impossibility(39,2,153).
impossibility(10,4,125).
impossibility(15,5,312).
impossibility(21,6,257).
impossibility(36,5,60).
impossibility(8,5,293).
impossibility(41,4,99).
impossibility(20,3,254).
impossibility(37,4,170).
impossibility(1,4,66).
impossibility(24,3,107).
impossibility(15,4,171).
impossibility(14,3,335).
impossibility(41,5,143).
impossibility(41,5,219).
impossibility(19,2,220).
impossibility(33,2,182).
impossibility(29,5,364).
impossibility(20,3,311).
impossibility(9,3,10).
impossibility(25,2,262).
impossibility(35,3,38).
impossibility(6,4,25).
impossibility(31,6,255).
impossibility(17,4,155).
impossibility(14,6,336).
impossibility(10,5,42).
impossibility(40,2,51).
impossibility(19,5,24).
impossibility(32,2,103).
impossibility(8,4,93).
impossibility(28,3,113).
impossibility(25,6,211).
impossibility(37,5,83).
impossibility(33,6,193).
impossibility(34,6,81).
impossibility(36,6,191).
impossibility(15,6,333).
impossibility(29,2,245).
impossibility(8,5,257).
impossibility(23,3,133).
impossibility(2,4,315).
impossibility(35,1,122).
impossibility(22,1,228).
impossibility(20,3,101).
impossibility(10,5,239).
impossibility(26,6,193).
impossibility(21,4,67).
impossibility(2,4,180).
impossibility(31,3,76).
impossibility(17,1,271).
impossibility(8,3,127).
impossibility(22,6,325).
impossibility(15,3,34).
impossibility(34,2,79).
impossibility(12,1,22).
impossibility(34,5,120).
impossibility(4,3,168).
impossibility(22,5,257).
impossibility(12,6,53).
impossibility(3,5,245).
impossibility(17,4,234).
impossibility(37,1,264).
impossibility(32,2,347).
impossibility(5,5,247).
impossibility(18,5,40).
impossibility(37,5,44).
impossibility(4,5,181).
impossibility(9,3,345).
impossibility(15,2,4).
impossibility(35,2,99).
impossibility(39,6,42).
impossibility(16,1,186).
impossibility(3,4,209).
impossibility(15,3,264).
impossibility(4,4,6).
impossibility(21,2,93).
impossibility(3,2,208).
impossibility(31,5,149).
impossibility(38,6,346).
impossibility(20,6,210).
impossibility(40,3,154).
impossibility(1,3,263).
impossibility(4,2,285).
impossibility(17,4,71).
impossibility(38,1,132).
impossibility(37,2,334).
impossibility(10,2,149).
impossibility(7,3,275).
impossibility(14,5,26).
impossibility(9,1,13).
impossibility(15,5,60).
impossibility(40,1,23).
impossibility(40,6,305).
impossibility(20,3,279).
impossibility(35,4,132).
impossibility(36,4,327).
impossibility(29,6,59).
impossibility(10,5,56).
impossibility(6,4,147).
impossibility(14,4,48).
impossibility(36,3,168).
impossibility(17,5,133).
impossibility(1,5,330).
impossibility(11,2,318).
impossibility(35,5,323).
impossibility(40,4,172).
impossibility(31,1,205).
impossibility(11,1,333).
impossibility(35,1,163).
impossibility(38,4,162).
impossibility(13,1,361).
impossibility(29,6,309).
impossibility(32,6,56).
impossibility(7,4,178).
impossibility(31,5,83).
impossibility(18,6,116).
impossibility(20,1,363).
impossibility(24,6,253).
impossibility(20,3,71).
impossibility(13,6,107).
impossibility(14,4,365).
impossibility(6,2,51).
impossibility(13,2,354).
impossibility(35,4,58).
impossibility(32,2,200).
impossibility(28,5,62).
impossibility(23,6,115).
impossibility(15,2,116).
impossibility(16,1,21).
impossibility(27,2,170).
impossibility(31,3,199).
impossibility(8,3,221).
impossibility(8,5,53).
impossibility(13,1,111).
impossibility(39,2,131).
impossibility(25,6,274).
impossibility(14,2,153).
impossibility(19,3,235).
impossibility(38,4,220).
impossibility(1,2,71).
impossibility(26,5,196).
impossibility(25,2,177).
impossibility(41,3,297).
impossibility(13,5,156).
impossibility(15,5,264).
impossibility(22,2,113).
impossibility(15,1,298).
impossibility(29,4,190).
impossibility(33,5,35).
impossibility(30,5,78).
impossibility(40,4,126).
impossibility(27,6,283).
impossibility(25,2,351).
impossibility(9,6,10).
impossibility(27,3,54).
impossibility(9,3,103).
impossibility(28,2,109).
impossibility(29,5,298).
impossibility(21,4,142).
impossibility(14,6,361).
impossibility(38,3,250).
impossibility(10,2,312).
impossibility(33,4,360).
impossibility(34,3,82).
impossibility(21,6,349).
impossibility(13,3,362).
impossibility(2,1,35).
impossibility(8,4,95).
impossibility(15,5,291).
impossibility(41,4,129).
impossibility(8,1,133).
impossibility(30,3,247).
impossibility(14,6,300).
impossibility(19,4,256).
impossibility(38,1,350).
impossibility(15,6,298).
impossibility(33,2,354).
impossibility(8,4,298).
impossibility(5,6,252).
impossibility(18,5,173).
impossibility(35,5,16).
impossibility(25,5,60).
impossibility(15,3,259).
impossibility(40,4,328).
impossibility(40,4,188).
impossibility(37,5,331).
impossibility(17,3,293).
impossibility(29,1,296).
impossibility(2,6,236).
impossibility(32,2,118).
impossibility(15,5,209).
impossibility(18,2,160).
impossibility(41,5,209).
impossibility(29,6,118).
impossibility(36,4,2).
impossibility(3,6,118).
impossibility(35,3,164).
impossibility(35,4,220).
impossibility(12,1,364).
impossibility(10,4,287).
impossibility(40,3,35).
impossibility(40,3,63).
impossibility(4,4,355).
impossibility(21,6,38).
impossibility(13,3,282).
impossibility(41,3,283).
impossibility(15,6,227).
impossibility(26,4,166).
impossibility(17,5,142).
impossibility(6,1,38).
impossibility(33,4,353).
impossibility(31,4,17).
impossibility(27,1,315).
impossibility(1,4,158).
impossibility(30,3,18).
impossibility(28,4,307).
impossibility(40,4,137).
impossibility(9,6,36).
impossibility(34,1,54).
impossibility(22,1,232).
impossibility(38,3,244).
impossibility(26,5,344).
impossibility(18,2,234).
impossibility(31,3,116).
impossibility(19,5,6).
impossibility(24,5,322).
impossibility(7,1,157).
impossibility(24,6,226).
impossibility(3,6,8).
impossibility(35,5,131).
impossibility(14,5,139).
impossibility(18,3,214).
impossibility(19,4,169).
impossibility(17,3,50).
impossibility(5,5,120).
impossibility(34,1,75).
impossibility(4,1,35).
impossibility(35,5,47).
impossibility(30,1,72).
impossibility(25,4,119).
impossibility(14,2,113).
impossibility(39,4,155).
impossibility(1,1,50).
impossibility(5,1,334).
impossibility(14,4,113).
impossibility(2,4,321).
impossibility(34,5,227).
impossibility(22,6,174).
impossibility(34,3,162).
impossibility(25,1,327).
impossibility(36,4,26).
impossibility(37,1,22).
impossibility(37,4,326).
impossibility(14,6,36).
impossibility(10,4,360).
impossibility(39,2,109).
impossibility(17,4,331).
impossibility(1,6,317).
impossibility(35,6,121).
impossibility(41,4,165).
impossibility(15,5,192).
impossibility(27,2,191).
impossibility(40,4,108).
impossibility(9,4,271).
impossibility(37,1,330).
impossibility(32,2,167).
impossibility(5,4,190).
impossibility(5,6,112).
impossibility(13,2,235).
impossibility(13,1,320).
impossibility(18,4,23).
impossibility(20,3,264).
impossibility(37,2,192).
impossibility(40,1,319).
impossibility(22,4,191).
impossibility(32,3,106).
impossibility(21,2,83).
impossibility(18,5,36).
impossibility(9,2,202).
impossibility(39,3,155).
impossibility(36,2,244).
impossibility(24,6,124).
impossibility(12,6,158).
impossibility(12,2,170).
impossibility(36,2,282).
impossibility(41,1,271).
impossibility(8,4,56).
impossibility(5,1,224).
impossibility(8,3,217).
impossibility(2,6,207).
impossibility(8,2,49).
impossibility(22,4,345).
impossibility(14,3,292).
impossibility(2,1,84).
impossibility(9,6,272).
impossibility(11,2,261).
impossibility(35,2,272).
impossibility(28,3,51).
impossibility(17,3,342).
impossibility(5,3,238).
impossibility(24,5,143).
impossibility(23,1,330).
impossibility(20,5,300).
impossibility(26,1,342).
impossibility(20,5,157).
impossibility(30,6,267).
impossibility(17,3,295).
impossibility(18,4,101).
impossibility(11,2,36).
impossibility(18,6,165).
impossibility(41,3,68).
impossibility(31,1,103).
impossibility(22,2,258).
impossibility(35,3,75).
impossibility(39,4,18).
impossibility(4,4,279).
impossibility(23,4,74).
impossibility(18,1,5).
impossibility(32,2,31).
impossibility(1,3,73).
impossibility(12,2,171).
impossibility(14,4,111).
impossibility(1,6,1).
impossibility(28,4,46).
impossibility(18,3,355).
impossibility(32,2,96).
impossibility(6,2,92).
impossibility(10,1,210).
impossibility(28,4,50).
impossibility(5,6,290).
impossibility(2,4,255).
impossibility(37,3,213).
impossibility(31,2,70).
impossibility(28,4,129).
impossibility(10,2,100).
impossibility(16,1,284).
impossibility(35,4,18).
impossibility(36,4,362).
impossibility(29,5,351).
impossibility(28,1,316).
impossibility(27,3,335).
impossibility(25,2,221).
impossibility(32,4,168).
impossibility(4,4,331).
impossibility(39,2,243).
impossibility(25,2,304).
impossibility(40,6,200).
impossibility(22,5,321).
impossibility(16,1,348).
impossibility(32,1,158).
impossibility(28,2,99).
impossibility(38,3,326).
impossibility(10,5,21).
impossibility(4,6,163).
impossibility(16,1,19).
impossibility(26,5,133).
impossibility(6,1,276).
impossibility(3,4,69).
impossibility(39,3,300).
impossibility(34,3,53).
impossibility(10,1,125).
impossibility(19,4,42).
impossibility(24,1,314).
impossibility(33,5,37).
impossibility(18,4,233).
impossibility(16,5,53).
impossibility(7,2,43).
impossibility(24,4,240).
impossibility(39,5,320).
impossibility(34,5,44).
impossibility(3,1,20).
impossibility(15,6,148).
impossibility(29,1,308).
impossibility(26,2,137).
impossibility(39,3,67).
impossibility(8,4,25).
impossibility(6,1,350).
impossibility(3,4,64).
impossibility(41,3,177).
impossibility(12,3,275).
impossibility(25,4,18).
impossibility(12,6,266).
impossibility(39,3,177).
impossibility(34,1,152).
impossibility(33,4,57).
impossibility(15,5,175).
impossibility(10,3,191).
impossibility(10,6,250).
impossibility(32,1,264).
impossibility(23,2,273).
impossibility(5,4,170).
impossibility(4,5,344).
impossibility(10,1,321).
impossibility(4,2,75).
impossibility(4,6,5).
impossibility(14,5,334).
impossibility(39,1,120).
impossibility(14,4,305).
impossibility(39,3,339).
impossibility(25,2,254).
impossibility(5,5,155).
impossibility(7,6,307).
impossibility(35,4,330).
impossibility(1,4,212).
impossibility(16,4,224).
impossibility(39,3,18).
impossibility(27,6,340).
impossibility(34,2,303).
impossibility(14,5,242).
impossibility(22,6,26).
impossibility(33,1,25).
impossibility(6,5,179).
impossibility(9,2,323).
impossibility(29,5,242).
impossibility(30,6,308).
impossibility(31,5,94).
impossibility(16,6,242).
impossibility(24,3,143).
impossibility(36,6,350).
impossibility(18,1,234).
impossibility(9,1,115).
impossibility(36,1,41).
impossibility(37,6,99).
impossibility(8,5,244).
impossibility(37,6,252).
impossibility(34,6,111).
impossibility(34,3,327).
impossibility(24,2,279).
impossibility(26,4,5).
impossibility(21,4,69).
impossibility(26,1,64).
impossibility(2,1,11).
impossibility(22,4,232).
impossibility(4,1,205).
impossibility(29,6,332).
impossibility(34,3,148).
impossibility(35,1,58).
impossibility(6,6,239).
impossibility(24,6,186).
impossibility(9,1,24).
impossibility(20,6,86).
impossibility(38,2,261).
impossibility(4,6,77).
impossibility(17,6,46).
impossibility(37,6,110).
impossibility(35,4,14).
impossibility(5,5,301).
impossibility(16,4,287).
impossibility(13,1,189).
impossibility(14,4,328).
impossibility(36,1,365).
impossibility(23,5,113).
impossibility(19,4,266).
impossibility(9,6,217).
impossibility(7,3,168).
impossibility(20,5,220).
impossibility(6,5,250).
impossibility(5,4,272).
impossibility(8,5,240).
impossibility(26,3,146).
impossibility(12,1,117).
impossibility(26,6,99).
impossibility(7,3,189).
impossibility(22,5,95).
impossibility(36,5,305).
impossibility(27,4,141).
impossibility(3,2,181).
impossibility(4,4,159).
impossibility(7,6,160).
impossibility(27,3,199).
impossibility(20,6,83).
impossibility(37,1,328).
impossibility(41,5,341).
impossibility(33,4,132).
impossibility(31,1,16).
impossibility(31,3,164).
impossibility(6,4,58).
impossibility(13,3,305).
impossibility(8,3,323).
impossibility(23,5,134).
impossibility(28,4,363).
impossibility(7,1,74).
impossibility(35,2,332).
impossibility(33,5,274).
impossibility(19,5,92).
impossibility(18,6,70).
impossibility(30,1,37).
impossibility(3,1,72).
impossibility(23,4,43).
impossibility(21,6,337).
impossibility(6,6,220).
impossibility(7,6,77).
impossibility(27,1,68).
impossibility(2,1,78).
impossibility(6,2,143).
impossibility(17,5,85).
impossibility(7,6,335).
impossibility(14,3,55).
impossibility(30,2,361).
impossibility(16,5,176).
impossibility(21,5,270).
impossibility(2,3,89).
impossibility(20,3,220).
impossibility(41,3,363).
impossibility(35,3,229).
impossibility(34,1,214).
impossibility(32,4,300).
impossibility(5,3,87).
impossibility(16,6,218).
impossibility(30,3,219).
impossibility(21,1,26).
impossibility(18,1,101).
impossibility(31,6,157).
impossibility(11,2,298).
impossibility(25,1,292).
impossibility(22,3,293).
impossibility(32,3,16).
impossibility(8,1,336).
impossibility(25,6,200).
impossibility(19,5,32).
impossibility(15,6,112).
impossibility(10,6,115).
impossibility(31,6,265).
impossibility(14,1,77).
impossibility(34,3,177).
impossibility(19,3,145).
impossibility(15,3,358).
impossibility(40,2,100).
impossibility(35,3,320).
impossibility(25,2,121).
impossibility(17,5,250).
impossibility(5,1,78).
impossibility(38,5,345).
impossibility(18,4,289).
impossibility(9,3,216).
impossibility(9,2,224).
impossibility(16,1,195).
impossibility(17,5,202).
impossibility(36,5,69).
impossibility(39,1,305).
impossibility(16,2,106).
impossibility(28,2,218).
impossibility(15,3,350).
impossibility(13,4,45).
impossibility(35,6,100).
impossibility(31,6,339).
impossibility(33,1,313).
impossibility(33,2,67).
impossibility(8,6,21).
impossibility(27,4,198).
impossibility(9,6,254).
impossibility(20,6,270).
impossibility(19,6,76).
impossibility(6,5,15).
impossibility(38,4,71).
impossibility(32,5,157).
impossibility(3,1,356).
impossibility(22,3,280).
impossibility(21,3,352).
impossibility(34,3,58).
impossibility(11,6,92).
impossibility(20,5,56).
impossibility(13,3,300).
impossibility(36,4,196).
impossibility(41,6,138).
impossibility(7,6,297).
impossibility(36,4,17).
impossibility(22,6,358).
impossibility(11,3,51).
impossibility(38,1,70).
impossibility(2,4,2).
impossibility(25,6,282).
impossibility(22,5,292).
impossibility(35,4,356).
impossibility(2,1,267).
impossibility(7,1,90).
impossibility(29,1,179).
impossibility(20,3,241).
impossibility(24,1,317).
impossibility(29,4,262).
impossibility(3,3,230).
impossibility(22,4,86).
impossibility(23,1,54).