impossibility(22,5,68).
impossibility(24,6,182).
impossibility(9,1,53).
impossibility(16,5,81).
impossibility(24,3,79).
impossibility(36,1,69).
impossibility(39,2,153).
impossibility(10,4,125).
impossibility(15,5,312).
impossibility(21,6,257).
impossibility(36,5,60).
impossibility(8,5,293).
impossibility(41,4,99).
impossibility(20,3,254).
impossibility(37,4,170).
impossibility(1,4,66).
impossibility(24,3,107).
impossibility(15,4,171).
impossibility(14,3,335).
impossibility(41,5,143).
impossibility(41,5,219).
impossibility(19,2,220).
impossibility(33,2,182).
impossibility(29,5,364).
impossibility(20,3,311).
impossibility(9,3,10).
impossibility(25,2,262).
impossibility(35,3,38).
impossibility(6,4,25).
impossibility(31,6,255).
impossibility(17,4,155).
impossibility(14,6,336).
impossibility(10,5,42).
impossibility(40,2,51).
impossibility(19,5,24).
impossibility(32,2,103).
impossibility(8,4,93).
impossibility(28,3,113).
impossibility(25,6,211).
impossibility(37,5,83).
impossibility(33,6,193).
impossibility(34,6,81).
impossibility(36,6,191).
impossibility(15,6,333).
impossibility(29,2,245).
impossibility(8,5,257).
impossibility(23,3,133).
impossibility(2,4,315).
impossibility(35,1,122).
impossibility(22,1,228).
impossibility(20,3,101).
impossibility(10,5,239).
impossibility(26,6,193).
impossibility(21,4,67).
impossibility(2,4,180).
impossibility(31,3,76).
impossibility(17,1,271).
impossibility(8,3,127).
impossibility(22,6,325).
impossibility(15,3,34).
impossibility(34,2,79).
impossibility(12,1,22).
impossibility(34,5,120).
impossibility(4,3,168).
impossibility(22,5,257).
impossibility(12,6,53).
impossibility(3,5,245).
impossibility(17,4,234).
impossibility(37,1,264).
impossibility(32,2,347).
impossibility(5,5,247).
impossibility(18,5,40).
impossibility(37,5,44).
impossibility(4,5,181).
impossibility(9,3,345).
impossibility(15,2,4).
impossibility(35,2,99).
impossibility(39,6,42).
impossibility(16,1,186).
impossibility(3,4,209).
impossibility(15,3,264).
impossibility(4,4,6).
impossibility(21,2,93).
impossibility(3,2,208).
impossibility(31,5,149).
impossibility(38,6,346).
impossibility(20,6,210).
impossibility(40,3,154).
impossibility(1,3,263).
impossibility(4,2,285).
impossibility(17,4,71).
impossibility(38,1,132).
impossibility(37,2,334).
impossibility(10,2,149).
impossibility(7,3,275).
impossibility(14,5,26).
impossibility(9,1,13).
impossibility(15,5,60).
impossibility(40,1,23).
impossibility(40,6,305).
impossibility(20,3,279).
impossibility(35,4,132).
impossibility(36,4,327).
impossibility(29,6,59).
impossibility(10,5,56).
impossibility(6,4,147).
impossibility(14,4,48).
impossibility(36,3,168).
impossibility(17,5,133).
impossibility(1,5,330).
impossibility(11,2,318).
impossibility(35,5,323).
impossibility(40,4,172).
impossibility(31,1,205).
impossibility(11,1,333).
impossibility(35,1,163).
impossibility(38,4,162).
impossibility(13,1,361).
impossibility(29,6,309).
impossibility(32,6,56).