impossibility(22,5,68).
impossibility(24,6,182).
impossibility(9,1,53).
impossibility(16,5,81).
impossibility(24,3,79).
impossibility(36,1,69).
impossibility(39,2,153).
impossibility(10,4,125).
impossibility(15,5,312).
impossibility(21,6,257).
impossibility(36,5,60).
impossibility(8,5,293).
impossibility(41,4,99).
impossibility(20,3,254).
impossibility(37,4,170).
impossibility(1,4,66).
impossibility(24,3,107).
impossibility(15,4,171).
impossibility(14,3,335).
impossibility(41,5,143).
impossibility(41,5,219).
impossibility(19,2,220).
impossibility(33,2,182).
impossibility(29,5,364).
impossibility(20,3,311).
impossibility(9,3,10).
impossibility(25,2,262).
impossibility(35,3,38).
impossibility(6,4,25).
impossibility(31,6,255).