impossibility(22,5,68).
impossibility(24,6,182).
impossibility(9,1,53).
impossibility(16,5,81).
impossibility(24,3,79).
impossibility(36,1,69).
impossibility(39,2,153).
impossibility(10,4,125).
impossibility(15,5,312).
impossibility(21,6,257).
impossibility(36,5,60).
impossibility(8,5,293).
impossibility(41,4,99).
impossibility(20,3,254).
impossibility(37,4,170).
impossibility(1,4,66).
impossibility(24,3,107).
impossibility(15,4,171).
impossibility(14,3,335).
impossibility(41,5,143).
impossibility(41,5,219).
impossibility(19,2,220).
impossibility(33,2,182).
impossibility(29,5,364).
impossibility(20,3,311).
impossibility(9,3,10).
impossibility(25,2,262).
impossibility(35,3,38).
impossibility(6,4,25).
impossibility(31,6,255).
impossibility(17,4,155).
impossibility(14,6,336).
impossibility(10,5,42).
impossibility(40,2,51).
impossibility(19,5,24).
impossibility(32,2,103).
impossibility(8,4,93).
impossibility(28,3,113).
impossibility(25,6,211).
impossibility(37,5,83).
impossibility(33,6,193).
impossibility(34,6,81).
impossibility(36,6,191).
impossibility(15,6,333).
impossibility(29,2,245).
impossibility(8,5,257).
impossibility(23,3,133).
impossibility(2,4,315).
impossibility(35,1,122).
impossibility(22,1,228).
impossibility(20,3,101).
impossibility(10,5,239).
impossibility(26,6,193).
impossibility(21,4,67).
impossibility(2,4,180).
impossibility(31,3,76).
impossibility(17,1,271).
impossibility(8,3,127).
impossibility(22,6,325).
impossibility(15,3,34).
impossibility(34,2,79).
impossibility(12,1,22).
impossibility(34,5,120).
impossibility(4,3,168).
impossibility(22,5,257).
impossibility(12,6,53).
impossibility(3,5,245).
impossibility(17,4,234).
impossibility(37,1,264).
impossibility(32,2,347).
impossibility(5,5,247).
impossibility(18,5,40).
impossibility(37,5,44).
impossibility(4,5,181).
impossibility(9,3,345).
impossibility(15,2,4).
impossibility(35,2,99).
impossibility(39,6,42).
impossibility(16,1,186).
impossibility(3,4,209).
impossibility(15,3,264).
impossibility(4,4,6).
impossibility(21,2,93).
impossibility(3,2,208).
impossibility(31,5,149).
impossibility(38,6,346).
impossibility(20,6,210).
impossibility(40,3,154).
impossibility(1,3,263).
impossibility(4,2,285).
impossibility(17,4,71).
impossibility(38,1,132).
impossibility(37,2,334).
impossibility(10,2,149).
impossibility(7,3,275).
impossibility(14,5,26).
impossibility(9,1,13).
impossibility(15,5,60).
impossibility(40,1,23).
impossibility(40,6,305).
impossibility(20,3,279).
impossibility(35,4,132).
impossibility(36,4,327).
impossibility(29,6,59).
impossibility(10,5,56).
impossibility(6,4,147).
impossibility(14,4,48).
impossibility(36,3,168).
impossibility(17,5,133).
impossibility(1,5,330).
impossibility(11,2,318).
impossibility(35,5,323).
impossibility(40,4,172).
impossibility(31,1,205).
impossibility(11,1,333).
impossibility(35,1,163).
impossibility(38,4,162).
impossibility(13,1,361).
impossibility(29,6,309).
impossibility(32,6,56).
impossibility(7,4,178).
impossibility(31,5,83).
impossibility(18,6,116).
impossibility(20,1,363).
impossibility(24,6,253).
impossibility(20,3,71).
impossibility(13,6,107).
impossibility(14,4,365).
impossibility(6,2,51).
impossibility(13,2,354).
impossibility(35,4,58).
impossibility(32,2,200).
impossibility(28,5,62).
impossibility(23,6,115).
impossibility(15,2,116).
impossibility(16,1,21).
impossibility(27,2,170).
impossibility(31,3,199).
impossibility(8,3,221).
impossibility(8,5,53).
impossibility(13,1,111).
impossibility(39,2,131).
impossibility(25,6,274).
impossibility(14,2,153).
impossibility(19,3,235).
impossibility(38,4,220).
impossibility(1,2,71).
impossibility(26,5,196).
impossibility(25,2,177).
impossibility(41,3,297).
impossibility(13,5,156).
impossibility(15,5,264).
impossibility(22,2,113).
impossibility(15,1,298).
impossibility(29,4,190).
impossibility(33,5,35).
impossibility(30,5,78).
impossibility(40,4,126).
impossibility(27,6,283).
impossibility(25,2,351).
impossibility(9,6,10).
impossibility(27,3,54).
impossibility(9,3,103).
impossibility(28,2,109).
impossibility(29,5,298).
impossibility(21,4,142).
impossibility(14,6,361).
impossibility(38,3,250).
impossibility(10,2,312).
impossibility(33,4,360).
impossibility(34,3,82).
impossibility(21,6,349).
impossibility(13,3,362).
impossibility(2,1,35).
impossibility(8,4,95).
impossibility(15,5,291).
impossibility(41,4,129).
impossibility(8,1,133).
impossibility(30,3,247).
impossibility(14,6,300).
impossibility(19,4,256).
impossibility(38,1,350).
impossibility(15,6,298).
impossibility(33,2,354).
impossibility(8,4,298).
impossibility(5,6,252).
impossibility(18,5,173).
impossibility(35,5,16).
impossibility(25,5,60).
impossibility(15,3,259).
impossibility(40,4,328).
impossibility(40,4,188).
impossibility(37,5,331).
impossibility(17,3,293).
impossibility(29,1,296).
impossibility(2,6,236).
impossibility(32,2,118).
impossibility(15,5,209).
impossibility(18,2,160).
impossibility(41,5,209).
impossibility(29,6,118).
impossibility(36,4,2).
impossibility(3,6,118).
impossibility(35,3,164).
impossibility(35,4,220).
impossibility(12,1,364).
impossibility(10,4,287).
impossibility(40,3,35).
impossibility(40,3,63).
impossibility(4,4,355).
impossibility(21,6,38).
impossibility(13,3,282).
impossibility(41,3,283).
impossibility(15,6,227).
impossibility(26,4,166).
impossibility(17,5,142).
impossibility(6,1,38).
impossibility(33,4,353).
impossibility(31,4,17).
impossibility(27,1,315).
impossibility(1,4,158).
impossibility(30,3,18).
impossibility(28,4,307).
impossibility(40,4,137).
impossibility(9,6,36).
impossibility(34,1,54).
impossibility(22,1,232).
impossibility(38,3,244).
impossibility(26,5,344).
impossibility(18,2,234).
impossibility(31,3,116).
impossibility(19,5,6).
impossibility(24,5,322).
impossibility(7,1,157).
impossibility(24,6,226).
impossibility(3,6,8).
impossibility(35,5,131).
impossibility(14,5,139).
impossibility(18,3,214).
impossibility(19,4,169).
impossibility(17,3,50).
impossibility(5,5,120).
impossibility(34,1,75).
impossibility(4,1,35).
impossibility(35,5,47).
impossibility(30,1,72).
impossibility(25,4,119).
impossibility(14,2,113).
impossibility(39,4,155).
impossibility(1,1,50).
impossibility(5,1,334).
impossibility(14,4,113).
impossibility(2,4,321).
impossibility(34,5,227).
impossibility(22,6,174).
impossibility(34,3,162).
impossibility(25,1,327).
impossibility(36,4,26).
impossibility(37,1,22).
impossibility(37,4,326).