impossibility(4,1,105).
impossibility(2,3,122).
impossibility(1,2,10).
impossibility(1,1,233).
impossibility(6,6,105).
impossibility(6,4,267).
impossibility(4,1,349).
impossibility(6,1,314).
impossibility(10,2,135).
impossibility(1,1,228).
impossibility(1,2,196).
impossibility(7,1,281).
impossibility(9,2,209).
impossibility(5,1,182).
impossibility(5,2,226).
impossibility(7,5,25).
impossibility(7,3,153).
impossibility(5,1,362).
impossibility(10,5,351).
impossibility(2,1,27).
impossibility(8,2,315).
impossibility(3,3,290).
impossibility(7,6,221).
impossibility(5,6,158).
impossibility(4,6,266).
impossibility(2,1,107).
impossibility(4,4,104).
impossibility(8,1,214).
impossibility(6,6,190).
impossibility(7,4,172).
impossibility(1,5,216).
impossibility(10,3,91).
impossibility(3,2,193).
impossibility(6,4,133).
impossibility(2,1,142).
impossibility(6,3,317).
impossibility(9,2,82).
impossibility(3,5,285).
impossibility(4,6,295).
impossibility(9,3,106).
impossibility(5,1,209).
impossibility(2,2,34).
impossibility(4,3,202).
impossibility(6,6,177).
impossibility(10,6,344).
impossibility(10,5,333).
impossibility(1,3,200).
impossibility(7,2,178).
impossibility(10,5,189).
impossibility(4,2,118).
impossibility(3,4,79).
impossibility(7,2,113).
impossibility(6,4,27).
impossibility(6,5,306).
impossibility(6,3,30).
impossibility(3,5,357).
impossibility(8,4,333).
impossibility(2,5,125).
impossibility(3,3,179).
impossibility(7,6,250).
impossibility(5,1,3).
impossibility(8,2,126).
impossibility(7,5,213).
impossibility(5,4,346).
impossibility(1,1,163).
impossibility(6,6,351).
impossibility(5,1,125).
impossibility(7,2,200).
impossibility(9,6,342).
impossibility(9,5,56).
impossibility(7,4,74).
impossibility(1,4,144).
impossibility(7,4,312).
impossibility(8,1,59).
impossibility(3,1,274).
impossibility(9,4,50).
impossibility(5,5,208).
impossibility(8,2,142).
impossibility(7,1,291).
impossibility(7,6,229).
impossibility(2,3,68).
impossibility(4,2,261).
impossibility(1,3,55).
impossibility(5,4,275).
impossibility(3,6,286).
impossibility(9,6,169).
impossibility(9,5,7).
impossibility(1,2,248).
impossibility(10,4,235).
impossibility(6,1,349).
impossibility(10,5,208).
impossibility(8,2,179).
impossibility(4,2,36).
impossibility(6,5,146).
impossibility(5,5,34).
impossibility(3,2,52).
impossibility(7,3,267).
impossibility(6,4,355).
impossibility(6,2,64).
impossibility(9,3,219).
impossibility(8,6,132).
impossibility(9,4,168).
impossibility(9,1,54).
impossibility(1,1,288).
impossibility(5,5,360).
impossibility(8,3,9).
impossibility(10,3,239).
impossibility(6,6,68).
impossibility(2,3,289).
impossibility(1,1,10).
impossibility(8,1,315).
impossibility(6,2,77).
impossibility(8,3,117).
impossibility(2,3,135).
impossibility(7,1,295).
impossibility(1,2,201).
impossibility(6,3,354).
impossibility(10,1,92).
impossibility(8,3,290).
impossibility(2,2,306).
impossibility(3,2,208).
impossibility(8,4,127).
impossibility(9,4,202).
impossibility(7,2,44).
impossibility(10,5,193).
impossibility(3,5,65).
impossibility(3,1,221).
impossibility(3,1,163).
impossibility(10,2,12).
impossibility(10,2,342).
impossibility(7,6,317).
impossibility(8,4,41).
impossibility(8,5,161).
impossibility(6,2,66).
impossibility(1,2,231).
impossibility(8,5,25).
impossibility(4,6,95).
impossibility(5,6,350).
impossibility(1,4,258).
impossibility(3,3,36).
impossibility(3,4,2).
impossibility(9,4,294).
impossibility(3,3,118).
impossibility(1,5,30).
impossibility(1,2,77).
impossibility(8,3,87).
impossibility(6,3,75).
impossibility(1,4,117).
impossibility(9,3,189).
impossibility(7,1,166).
impossibility(10,4,188).
impossibility(7,1,98).
impossibility(2,4,129).
impossibility(6,3,21).
impossibility(2,4,211).
impossibility(9,1,289).
impossibility(1,5,310).
impossibility(2,5,144).
impossibility(5,3,252).
impossibility(5,6,209).
impossibility(6,1,235).
impossibility(3,6,311).
impossibility(3,3,228).
impossibility(6,4,292).
impossibility(1,2,302).
impossibility(9,3,225).
impossibility(4,1,40).
impossibility(8,2,297).
impossibility(1,5,123).
impossibility(8,3,278).
impossibility(10,2,116).
impossibility(6,6,52).
impossibility(9,1,177).
impossibility(3,6,154).
impossibility(2,6,266).
impossibility(6,5,352).
impossibility(1,4,204).
impossibility(6,6,233).
impossibility(6,2,159).
impossibility(2,5,134).
impossibility(10,2,121).
impossibility(4,3,200).
impossibility(1,5,261).
impossibility(8,5,276).
impossibility(1,4,359).
impossibility(7,1,136).
impossibility(8,3,58).
impossibility(5,3,98).
impossibility(2,6,235).
impossibility(7,6,333).
impossibility(9,6,130).
impossibility(1,5,71).
impossibility(9,4,99).
impossibility(6,6,203).
impossibility(1,5,318).
impossibility(7,3,195).
impossibility(2,5,260).
impossibility(10,2,246).
impossibility(3,3,19).
impossibility(2,4,296).
impossibility(4,1,78).
impossibility(7,5,116).
impossibility(5,3,119).
impossibility(1,2,14).
impossibility(5,2,173).
impossibility(3,5,332).
impossibility(4,1,357).
impossibility(8,6,330).
impossibility(2,3,226).
impossibility(7,4,145).
impossibility(9,1,250).
impossibility(2,2,4).
impossibility(9,2,86).
impossibility(3,1,169).
impossibility(3,2,119).
impossibility(6,4,62).
impossibility(9,2,2).
impossibility(6,3,281).
impossibility(7,6,46).
impossibility(6,3,63).
impossibility(2,4,87).
impossibility(1,4,125).
impossibility(7,3,24).
impossibility(7,3,140).
impossibility(3,3,104).
impossibility(10,2,186).
impossibility(9,6,128).
impossibility(1,4,84).
impossibility(2,2,221).
impossibility(5,2,156).
impossibility(1,1,6).
impossibility(4,4,309).
impossibility(2,5,172).
impossibility(5,6,118).
impossibility(5,2,91).
impossibility(8,4,70).
impossibility(5,6,322).
impossibility(9,1,159).
impossibility(2,5,208).
impossibility(2,5,87).
impossibility(6,5,123).
impossibility(6,5,216).
impossibility(5,2,207).
impossibility(9,2,262).
impossibility(5,1,354).
impossibility(6,5,230).
impossibility(8,2,213).
impossibility(4,1,323).
impossibility(5,5,251).
impossibility(4,2,78).
impossibility(5,1,276).
impossibility(9,6,357).
impossibility(9,3,199).
impossibility(7,3,63).
impossibility(9,5,39).
impossibility(2,3,115).
impossibility(9,3,51).
impossibility(1,4,292).
impossibility(3,6,240).
impossibility(7,3,278).
impossibility(10,1,236).
impossibility(6,6,245).
impossibility(7,4,95).
impossibility(1,4,332).
impossibility(3,5,123).
impossibility(4,5,293).
impossibility(6,2,330).
impossibility(6,1,133).
impossibility(4,2,138).
impossibility(7,2,65).
impossibility(1,6,181).
impossibility(10,1,121).
impossibility(4,6,156).
impossibility(6,6,42).
impossibility(1,2,4).
impossibility(1,5,284).
impossibility(7,1,133).
impossibility(1,1,265).
impossibility(2,5,327).
impossibility(1,1,255).
impossibility(2,1,47).
impossibility(9,4,264).
impossibility(8,2,201).
impossibility(1,5,24).
impossibility(8,1,309).
impossibility(9,5,4).
impossibility(1,3,116).
impossibility(3,2,120).
impossibility(3,4,86).
impossibility(8,4,250).
impossibility(9,5,186).
impossibility(3,5,119).
impossibility(1,6,196).
impossibility(4,3,17).
impossibility(6,1,199).
impossibility(7,1,221).
impossibility(1,6,94).
impossibility(6,5,336).
impossibility(9,1,271).
impossibility(8,4,337).
impossibility(2,6,124).
impossibility(6,2,26).
impossibility(4,3,181).
impossibility(2,5,189).
impossibility(2,4,166).
impossibility(9,2,304).
impossibility(8,5,104).
impossibility(2,1,245).
impossibility(5,2,325).
impossibility(9,4,59).
impossibility(8,4,303).
impossibility(10,6,251).
impossibility(5,3,265).
impossibility(9,5,128).
impossibility(8,4,146).
impossibility(1,4,326).
impossibility(6,6,132).
impossibility(4,1,225).
impossibility(5,3,278).
impossibility(6,5,278).
impossibility(4,1,329).
impossibility(1,5,34).
impossibility(8,6,102).
impossibility(9,4,9).
impossibility(7,4,194).
impossibility(2,4,112).
impossibility(6,4,301).
impossibility(3,4,198).
impossibility(3,5,87).
impossibility(10,4,252).
impossibility(3,5,308).
impossibility(6,5,296).
impossibility(10,6,151).
impossibility(4,3,88).
impossibility(5,4,136).
impossibility(4,1,281).
impossibility(5,4,142).
impossibility(9,6,315).
impossibility(7,5,324).
impossibility(1,3,339).
impossibility(10,2,72).
impossibility(9,5,123).
impossibility(9,4,309).
impossibility(9,3,212).
impossibility(9,2,249).
impossibility(3,5,28).
impossibility(6,6,37).
impossibility(8,1,343).
impossibility(8,6,11).
impossibility(2,1,284).
impossibility(2,5,217).
impossibility(9,4,299).
impossibility(2,4,175).
impossibility(7,6,318).
impossibility(7,1,262).
impossibility(8,2,267).
impossibility(8,3,61).
impossibility(5,3,193).
impossibility(5,5,165).
impossibility(9,5,161).
impossibility(2,1,189).
impossibility(4,6,142).
impossibility(7,4,86).
impossibility(5,4,279).
impossibility(1,6,23).
impossibility(9,6,109).
impossibility(1,2,260).
impossibility(9,5,228).
impossibility(2,1,69).
impossibility(3,4,184).
impossibility(3,3,159).
impossibility(1,3,89).
impossibility(10,3,170).
impossibility(4,2,115).
impossibility(7,5,12).
impossibility(5,1,39).
impossibility(7,6,308).
impossibility(1,6,51).
impossibility(10,3,267).
impossibility(6,3,9).
impossibility(1,4,33).
impossibility(4,1,207).
impossibility(3,3,272).
impossibility(6,2,340).
impossibility(5,5,81).
impossibility(1,1,195).
impossibility(2,4,56).
impossibility(5,5,339).
impossibility(4,6,294).
impossibility(2,4,13).
impossibility(10,5,283).
impossibility(1,6,22).
impossibility(1,1,345).
impossibility(8,3,357).
impossibility(5,3,290).
impossibility(4,3,313).
impossibility(6,2,172).
impossibility(1,1,128).
impossibility(7,5,217).
impossibility(6,6,127).
impossibility(10,6,207).
impossibility(10,1,115).
impossibility(1,3,323).
impossibility(8,2,341).
impossibility(2,2,266).
impossibility(7,1,238).
impossibility(1,1,91).
impossibility(3,6,208).
impossibility(7,6,335).
impossibility(1,4,89).
impossibility(5,1,328).
impossibility(2,2,228).
impossibility(3,1,36).
impossibility(1,4,222).
impossibility(10,5,31).
impossibility(7,3,170).
impossibility(2,4,3).
impossibility(2,5,137).
impossibility(6,1,339).
impossibility(1,1,191).
impossibility(9,6,87).
impossibility(7,4,12).
impossibility(9,6,216).
impossibility(9,5,272).
impossibility(10,4,11).
impossibility(5,2,188).
impossibility(6,2,300).
impossibility(2,6,172).
impossibility(2,2,337).
impossibility(6,4,54).
impossibility(8,1,22).
impossibility(4,5,258).
impossibility(10,3,100).
impossibility(4,2,3).
impossibility(9,1,84).
impossibility(8,5,311).
impossibility(2,3,277).
impossibility(7,4,198).
impossibility(10,3,245).
impossibility(7,5,239).
impossibility(4,5,345).
impossibility(10,1,154).
impossibility(9,4,189).
impossibility(5,2,344).
impossibility(9,3,226).
impossibility(6,6,85).
impossibility(2,4,81).
impossibility(2,4,332).
impossibility(4,2,76).
impossibility(7,3,41).
impossibility(10,6,297).
impossibility(5,2,11).
impossibility(10,1,267).
impossibility(8,4,301).
impossibility(3,6,326).
impossibility(2,2,167).
impossibility(9,4,155).
impossibility(4,4,152).
impossibility(8,1,252).
impossibility(4,6,27).
impossibility(9,6,232).
impossibility(2,3,119).
impossibility(4,3,117).
impossibility(3,4,240).
impossibility(5,4,23).
impossibility(4,5,283).
impossibility(3,4,339).
impossibility(7,1,240).
impossibility(9,5,286).
impossibility(5,6,272).
impossibility(9,6,38).
impossibility(2,2,160).
impossibility(3,6,134).
impossibility(5,6,140).
impossibility(6,6,21).
impossibility(10,4,89).
impossibility(5,5,357).
impossibility(5,6,224).
impossibility(5,1,278).
impossibility(2,5,302).
impossibility(2,1,13).
impossibility(7,2,86).
impossibility(5,1,86).
impossibility(5,6,54).
impossibility(3,1,353).
impossibility(8,2,217).
impossibility(3,5,150).
impossibility(4,6,242).
impossibility(8,3,172).
impossibility(10,4,257).
impossibility(4,1,170).
impossibility(8,2,198).
impossibility(3,1,44).
impossibility(5,6,84).
impossibility(7,4,325).
impossibility(9,3,16).
impossibility(10,4,324).
impossibility(3,3,227).
impossibility(7,5,105).
impossibility(9,6,246).
impossibility(2,1,174).
impossibility(1,5,340).
impossibility(5,6,14).
impossibility(7,6,45).
impossibility(8,5,174).
impossibility(2,6,27).
impossibility(7,4,320).
impossibility(4,6,252).
impossibility(3,4,78).
impossibility(4,4,225).
impossibility(10,2,151).
impossibility(10,4,35).
impossibility(10,5,256).
impossibility(2,3,324).
impossibility(5,1,220).
impossibility(10,4,116).
impossibility(6,2,119).
impossibility(2,3,44).
impossibility(7,6,153).
impossibility(4,1,189).
impossibility(9,2,295).
impossibility(8,1,241).
impossibility(8,3,161).
impossibility(8,5,210).
impossibility(2,2,96).
impossibility(1,4,137).
impossibility(7,3,286).
impossibility(4,3,121).
impossibility(2,4,140).
impossibility(6,1,362).
impossibility(9,2,131).
impossibility(8,5,120).
impossibility(3,6,2).
impossibility(8,1,24).
impossibility(4,3,240).
impossibility(9,6,70).
impossibility(2,2,296).
impossibility(1,2,187).
impossibility(5,6,276).
impossibility(7,6,141).
impossibility(2,4,117).
impossibility(4,5,355).
impossibility(5,3,363).
impossibility(1,2,150).
impossibility(9,2,114).
impossibility(2,4,44).
impossibility(8,6,4).
impossibility(7,2,296).
impossibility(9,4,274).
impossibility(9,2,305).
impossibility(2,6,82).
impossibility(2,5,323).
impossibility(6,6,100).
impossibility(4,5,70).
impossibility(1,5,49).
impossibility(2,3,351).
impossibility(6,6,153).
impossibility(3,3,73).
impossibility(8,3,281).
impossibility(6,1,342).
impossibility(10,3,4).
impossibility(5,5,107).
impossibility(9,5,63).
impossibility(8,3,251).
impossibility(10,6,118).
impossibility(5,1,48).
impossibility(7,2,38).
impossibility(9,5,354).
impossibility(6,1,269).
impossibility(6,3,161).
impossibility(3,5,290).
impossibility(5,3,330).
impossibility(7,2,99).
impossibility(2,3,270).
impossibility(5,3,11).
impossibility(1,3,306).
impossibility(2,1,11).
impossibility(4,2,320).
impossibility(6,6,262).
impossibility(9,3,357).
impossibility(7,1,126).
impossibility(3,6,166).
impossibility(4,4,213).
impossibility(4,3,284).
impossibility(3,6,23).
impossibility(4,5,196).
impossibility(6,1,5).
impossibility(8,5,61).
impossibility(8,2,85).
impossibility(5,5,119).
impossibility(9,6,289).
impossibility(1,3,313).
impossibility(7,2,266).
impossibility(3,5,197).
impossibility(6,5,241).
impossibility(7,2,245).
impossibility(4,5,197).
impossibility(3,2,44).
impossibility(5,1,349).
impossibility(9,5,285).
impossibility(7,3,156).
impossibility(6,3,242).
impossibility(7,3,184).
impossibility(9,5,90).
impossibility(6,3,112).
impossibility(9,1,342).
impossibility(7,1,10).
impossibility(3,6,169).
impossibility(3,3,3).
impossibility(8,5,242).
impossibility(8,4,208).
impossibility(9,1,279).
impossibility(6,6,220).
impossibility(7,6,187).
impossibility(2,1,5).
impossibility(3,4,111).
impossibility(2,6,159).
impossibility(7,6,99).
impossibility(9,5,179).
impossibility(1,1,357).
impossibility(10,3,149).
impossibility(8,2,22).
impossibility(3,1,320).
impossibility(10,5,264).
impossibility(6,6,59).
impossibility(6,3,169).
impossibility(8,5,228).
impossibility(1,4,245).
impossibility(3,1,21).
impossibility(3,6,87).
impossibility(1,6,193).
impossibility(7,1,158).
impossibility(7,4,80).
impossibility(6,3,156).
impossibility(7,2,40).
impossibility(8,2,293).
impossibility(1,5,352).
impossibility(5,3,318).
impossibility(7,1,191).
impossibility(3,1,341).
impossibility(1,6,314).
impossibility(5,6,183).
impossibility(10,3,172).
impossibility(1,3,360).
impossibility(6,6,365).
impossibility(9,2,52).
impossibility(6,3,139).
impossibility(4,1,306).
impossibility(5,6,150).
impossibility(6,3,263).
impossibility(9,4,42).
impossibility(7,4,337).
impossibility(10,4,242).
impossibility(4,3,147).
impossibility(10,1,216).
impossibility(9,3,198).
impossibility(4,1,145).
impossibility(3,6,120).
impossibility(7,4,60).
impossibility(7,4,319).
impossibility(1,2,310).
impossibility(4,4,271).
impossibility(4,4,23).
impossibility(9,1,181).
impossibility(6,3,254).
impossibility(2,3,102).
impossibility(9,1,262).
impossibility(6,5,233).
impossibility(7,6,14).
impossibility(6,6,308).
impossibility(10,2,173).
impossibility(6,4,73).
impossibility(5,1,82).
impossibility(7,6,86).
impossibility(1,2,36).
impossibility(9,1,148).
impossibility(4,2,204).
impossibility(8,4,125).
impossibility(10,3,15).
impossibility(4,6,117).
impossibility(6,5,257).
impossibility(10,3,252).
impossibility(6,6,114).
impossibility(2,3,255).
impossibility(9,5,218).
impossibility(1,5,267).
impossibility(8,1,97).
impossibility(1,3,191).
impossibility(6,1,135).
impossibility(10,3,212).
impossibility(10,3,270).
impossibility(10,6,153).
impossibility(3,3,102).
impossibility(1,4,177).
impossibility(4,2,299).
impossibility(10,5,138).
impossibility(4,3,210).
impossibility(9,3,330).
impossibility(1,6,217).
impossibility(7,2,4).
impossibility(7,1,77).
impossibility(7,1,74).
impossibility(5,3,28).
impossibility(6,6,121).
impossibility(4,6,84).
impossibility(6,1,81).
impossibility(9,6,43).
impossibility(1,2,296).
impossibility(7,1,54).
impossibility(10,1,284).
impossibility(6,4,244).
impossibility(3,1,1).
impossibility(9,2,169).
impossibility(1,1,221).
impossibility(8,3,302).
impossibility(5,1,78).
impossibility(2,2,334).
impossibility(2,4,73).
impossibility(4,3,154).
impossibility(9,5,51).
impossibility(1,2,156).
impossibility(5,4,194).
impossibility(3,2,25).
impossibility(4,5,282).
impossibility(6,2,263).
impossibility(8,3,223).
impossibility(7,5,258).
impossibility(9,2,142).
impossibility(9,3,255).
impossibility(2,1,342).
impossibility(10,3,208).
impossibility(9,1,114).
impossibility(1,2,307).
impossibility(10,3,10).
impossibility(8,5,66).
impossibility(1,6,8).
impossibility(3,6,237).
impossibility(8,4,292).
impossibility(4,3,215).
impossibility(7,6,165).
impossibility(9,4,100).
impossibility(9,1,295).
impossibility(9,2,201).
impossibility(4,4,49).
impossibility(3,2,304).
impossibility(5,3,80).
impossibility(7,6,118).
impossibility(4,4,197).
impossibility(6,3,151).
impossibility(9,1,132).
impossibility(7,1,304).
impossibility(7,6,188).
impossibility(4,3,249).
impossibility(6,5,41).
impossibility(3,5,102).
impossibility(7,5,148).
impossibility(9,3,142).
impossibility(10,1,342).
impossibility(3,3,150).
impossibility(9,2,326).
impossibility(7,4,304).
impossibility(10,5,72).
impossibility(5,6,83).
impossibility(5,2,33).
impossibility(5,1,135).
impossibility(4,4,335).
impossibility(9,4,149).
impossibility(4,1,51).
impossibility(1,3,35).
impossibility(10,2,81).
impossibility(9,4,227).
impossibility(4,6,349).
impossibility(4,4,50).
impossibility(6,5,210).
impossibility(7,2,176).
impossibility(10,4,50).
impossibility(5,1,309).
impossibility(8,5,151).
impossibility(3,4,56).
impossibility(10,4,3).
impossibility(9,6,174).
impossibility(2,2,171).
impossibility(8,5,245).
impossibility(6,3,194).
impossibility(5,6,227).
impossibility(2,3,273).
impossibility(3,3,81).
impossibility(10,4,360).
impossibility(2,4,46).
impossibility(1,4,64).