impossibility(4,1,105).
impossibility(2,3,122).
impossibility(1,2,10).
impossibility(1,1,233).
impossibility(6,6,105).
impossibility(6,4,267).
impossibility(4,1,349).
impossibility(6,1,314).
impossibility(10,2,135).
impossibility(1,1,228).
impossibility(1,2,196).
impossibility(7,1,281).
impossibility(9,2,209).
impossibility(5,1,182).
impossibility(5,2,226).
impossibility(7,5,25).
impossibility(7,3,153).
impossibility(5,1,362).
impossibility(10,5,351).
impossibility(2,1,27).
impossibility(8,2,315).
impossibility(3,3,290).
impossibility(7,6,221).
impossibility(5,6,158).
impossibility(4,6,266).
impossibility(2,1,107).
impossibility(4,4,104).
impossibility(8,1,214).
impossibility(6,6,190).
impossibility(7,4,172).
impossibility(1,5,216).
impossibility(10,3,91).
impossibility(3,2,193).
impossibility(6,4,133).
impossibility(2,1,142).
impossibility(6,3,317).
impossibility(9,2,82).
impossibility(3,5,285).
impossibility(4,6,295).
impossibility(9,3,106).
impossibility(5,1,209).
impossibility(2,2,34).
impossibility(4,3,202).
impossibility(6,6,177).
impossibility(10,6,344).
impossibility(10,5,333).
impossibility(1,3,200).
impossibility(7,2,178).
impossibility(10,5,189).
impossibility(4,2,118).
impossibility(3,4,79).
impossibility(7,2,113).
impossibility(6,4,27).
impossibility(6,5,306).
impossibility(6,3,30).
impossibility(3,5,357).
impossibility(8,4,333).
impossibility(2,5,125).
impossibility(3,3,179).
impossibility(7,6,250).
impossibility(5,1,3).
impossibility(8,2,126).
impossibility(7,5,213).
impossibility(5,4,346).
impossibility(1,1,163).
impossibility(6,6,351).
impossibility(5,1,125).
impossibility(7,2,200).
impossibility(9,6,342).
impossibility(9,5,56).
impossibility(7,4,74).
impossibility(1,4,144).
impossibility(7,4,312).
impossibility(8,1,59).
impossibility(3,1,274).
impossibility(9,4,50).
impossibility(5,5,208).
impossibility(8,2,142).
impossibility(7,1,291).
impossibility(7,6,229).
impossibility(2,3,68).
impossibility(4,2,261).
impossibility(1,3,55).
impossibility(5,4,275).
impossibility(3,6,286).
impossibility(9,6,169).
impossibility(9,5,7).
impossibility(1,2,248).
impossibility(10,4,235).
impossibility(6,1,349).
impossibility(10,5,208).
impossibility(8,2,179).
impossibility(4,2,36).
impossibility(6,5,146).
impossibility(5,5,34).
impossibility(3,2,52).
impossibility(7,3,267).
impossibility(6,4,355).
impossibility(6,2,64).
impossibility(9,3,219).
impossibility(8,6,132).
impossibility(9,4,168).
impossibility(9,1,54).
impossibility(1,1,288).
impossibility(5,5,360).
impossibility(8,3,9).
impossibility(10,3,239).
impossibility(6,6,68).
impossibility(2,3,289).
impossibility(1,1,10).
impossibility(8,1,315).
impossibility(6,2,77).
impossibility(8,3,117).
impossibility(2,3,135).
impossibility(7,1,295).
impossibility(1,2,201).
impossibility(6,3,354).
impossibility(10,1,92).
impossibility(8,3,290).
impossibility(2,2,306).
impossibility(3,2,208).
impossibility(8,4,127).
impossibility(9,4,202).
impossibility(7,2,44).
impossibility(10,5,193).
impossibility(3,5,65).
impossibility(3,1,221).
impossibility(3,1,163).
impossibility(10,2,12).
impossibility(10,2,342).
impossibility(7,6,317).
impossibility(8,4,41).
impossibility(8,5,161).
impossibility(6,2,66).
impossibility(1,2,231).
impossibility(8,5,25).
impossibility(4,6,95).
impossibility(5,6,350).
impossibility(1,4,258).
impossibility(3,3,36).
impossibility(3,4,2).
impossibility(9,4,294).
impossibility(3,3,118).
impossibility(1,5,30).
impossibility(1,2,77).
impossibility(8,3,87).
impossibility(6,3,75).
impossibility(1,4,117).
impossibility(9,3,189).
impossibility(7,1,166).
impossibility(10,4,188).
impossibility(7,1,98).
impossibility(2,4,129).
impossibility(6,3,21).
impossibility(2,4,211).
impossibility(9,1,289).
impossibility(1,5,310).
impossibility(2,5,144).
impossibility(5,3,252).
impossibility(5,6,209).
impossibility(6,1,235).
impossibility(3,6,311).
impossibility(3,3,228).
impossibility(6,4,292).
impossibility(1,2,302).
impossibility(9,3,225).
impossibility(4,1,40).
impossibility(8,2,297).
impossibility(1,5,123).
impossibility(8,3,278).
impossibility(10,2,116).
impossibility(6,6,52).
impossibility(9,1,177).
impossibility(3,6,154).
impossibility(2,6,266).
impossibility(6,5,352).
impossibility(1,4,204).
impossibility(6,6,233).
impossibility(6,2,159).
impossibility(2,5,134).
impossibility(10,2,121).
impossibility(4,3,200).
impossibility(1,5,261).
impossibility(8,5,276).
impossibility(1,4,359).
impossibility(7,1,136).
impossibility(8,3,58).
impossibility(5,3,98).
impossibility(2,6,235).
impossibility(7,6,333).
impossibility(9,6,130).
impossibility(1,5,71).
impossibility(9,4,99).
impossibility(6,6,203).
impossibility(1,5,318).
impossibility(7,3,195).
impossibility(2,5,260).
impossibility(10,2,246).
impossibility(3,3,19).
impossibility(2,4,296).
impossibility(4,1,78).
impossibility(7,5,116).
impossibility(5,3,119).
impossibility(1,2,14).
impossibility(5,2,173).
impossibility(3,5,332).
impossibility(4,1,357).
impossibility(8,6,330).
impossibility(2,3,226).
impossibility(7,4,145).
impossibility(9,1,250).
impossibility(2,2,4).
impossibility(9,2,86).
impossibility(3,1,169).
impossibility(3,2,119).
impossibility(6,4,62).
impossibility(9,2,2).
impossibility(6,3,281).
impossibility(7,6,46).
impossibility(6,3,63).
impossibility(2,4,87).
impossibility(1,4,125).
impossibility(7,3,24).
impossibility(7,3,140).
impossibility(3,3,104).
impossibility(10,2,186).
impossibility(9,6,128).
impossibility(1,4,84).
impossibility(2,2,221).
impossibility(5,2,156).
impossibility(1,1,6).
impossibility(4,4,309).
impossibility(2,5,172).
impossibility(5,6,118).
impossibility(5,2,91).
impossibility(8,4,70).
impossibility(5,6,322).
impossibility(9,1,159).
impossibility(2,5,208).
impossibility(2,5,87).
impossibility(6,5,123).
impossibility(6,5,216).
impossibility(5,2,207).
impossibility(9,2,262).
impossibility(5,1,354).
impossibility(6,5,230).
impossibility(8,2,213).
impossibility(4,1,323).
impossibility(5,5,251).
impossibility(4,2,78).
impossibility(5,1,276).
impossibility(9,6,357).
impossibility(9,3,199).
impossibility(7,3,63).
impossibility(9,5,39).
impossibility(2,3,115).
impossibility(9,3,51).
impossibility(1,4,292).
impossibility(3,6,240).
impossibility(7,3,278).
impossibility(10,1,236).
impossibility(6,6,245).
impossibility(7,4,95).
impossibility(1,4,332).
impossibility(3,5,123).
impossibility(4,5,293).
impossibility(6,2,330).
impossibility(6,1,133).
impossibility(4,2,138).
impossibility(7,2,65).
impossibility(1,6,181).
impossibility(10,1,121).
impossibility(4,6,156).
impossibility(6,6,42).
impossibility(1,2,4).
impossibility(1,5,284).
impossibility(7,1,133).
impossibility(1,1,265).
impossibility(2,5,327).
impossibility(1,1,255).
impossibility(2,1,47).
impossibility(9,4,264).
impossibility(8,2,201).
impossibility(1,5,24).
impossibility(8,1,309).
impossibility(9,5,4).
impossibility(1,3,116).
impossibility(3,2,120).
impossibility(3,4,86).
impossibility(8,4,250).
impossibility(9,5,186).
impossibility(3,5,119).
impossibility(1,6,196).
impossibility(4,3,17).
impossibility(6,1,199).
impossibility(7,1,221).
impossibility(1,6,94).
impossibility(6,5,336).
impossibility(9,1,271).
impossibility(8,4,337).
impossibility(2,6,124).
impossibility(6,2,26).
impossibility(4,3,181).
impossibility(2,5,189).
impossibility(2,4,166).
impossibility(9,2,304).
impossibility(8,5,104).
impossibility(2,1,245).
impossibility(5,2,325).
impossibility(9,4,59).
impossibility(8,4,303).
impossibility(10,6,251).
impossibility(5,3,265).
impossibility(9,5,128).
impossibility(8,4,146).
impossibility(1,4,326).
impossibility(6,6,132).
impossibility(4,1,225).
impossibility(5,3,278).
impossibility(6,5,278).