impossibility(4,1,105).
impossibility(2,3,122).
impossibility(1,2,10).
impossibility(1,1,233).
impossibility(6,6,105).
impossibility(6,4,267).
impossibility(4,1,349).
impossibility(6,1,314).
impossibility(10,2,135).
impossibility(1,1,228).
impossibility(1,2,196).
impossibility(7,1,281).
impossibility(9,2,209).
impossibility(5,1,182).
impossibility(5,2,226).
impossibility(7,5,25).
impossibility(7,3,153).
impossibility(5,1,362).
impossibility(10,5,351).
impossibility(2,1,27).
impossibility(8,2,315).
impossibility(3,3,290).
impossibility(7,6,221).
impossibility(5,6,158).
impossibility(4,6,266).
impossibility(2,1,107).
impossibility(4,4,104).
impossibility(8,1,214).
impossibility(6,6,190).
impossibility(7,4,172).