impossibility(1,3,114).
impossibility(12,3,11).
impossibility(13,6,48).
impossibility(20,4,40).
impossibility(11,4,311).
impossibility(19,6,220).
impossibility(9,5,6).
impossibility(2,1,244).
impossibility(18,5,40).
impossibility(15,6,160).
impossibility(13,4,58).
impossibility(1,3,179).
impossibility(17,2,194).
impossibility(8,4,270).
impossibility(5,3,56).
impossibility(12,6,72).
impossibility(14,5,65).
impossibility(17,2,225).
impossibility(8,4,215).
impossibility(1,4,130).
impossibility(8,6,311).
impossibility(8,4,12).
impossibility(17,3,118).
impossibility(4,3,151).
impossibility(16,1,302).
impossibility(7,3,258).
impossibility(10,6,210).
impossibility(17,4,129).
impossibility(17,1,37).
impossibility(16,2,310).
impossibility(17,4,134).
impossibility(17,5,240).
impossibility(17,4,250).
impossibility(20,4,361).
impossibility(12,5,77).
impossibility(2,6,230).
impossibility(5,2,84).
impossibility(14,2,14).
impossibility(17,2,352).
impossibility(4,1,209).
impossibility(12,5,342).
impossibility(18,5,168).
impossibility(13,3,259).
impossibility(8,1,279).
impossibility(19,3,290).
impossibility(1,1,207).
impossibility(4,2,253).
impossibility(12,3,126).
impossibility(13,1,121).
impossibility(16,5,205).
impossibility(5,3,286).
impossibility(9,5,175).
impossibility(4,4,172).
impossibility(11,6,297).
impossibility(8,2,239).
impossibility(3,2,299).
impossibility(10,6,265).
impossibility(19,4,265).
impossibility(13,2,238).
impossibility(17,5,126).