impossibility(1,3,114).
impossibility(12,3,11).
impossibility(13,6,48).
impossibility(20,4,40).
impossibility(11,4,311).
impossibility(19,6,220).
impossibility(9,5,6).
impossibility(2,1,244).
impossibility(18,5,40).
impossibility(15,6,160).
impossibility(13,4,58).
impossibility(1,3,179).
impossibility(17,2,194).
impossibility(8,4,270).
impossibility(5,3,56).
impossibility(12,6,72).
impossibility(14,5,65).
impossibility(17,2,225).
impossibility(8,4,215).
impossibility(1,4,130).
impossibility(8,6,311).
impossibility(8,4,12).
impossibility(17,3,118).
impossibility(4,3,151).
impossibility(16,1,302).
impossibility(7,3,258).
impossibility(10,6,210).
impossibility(17,4,129).
impossibility(17,1,37).
impossibility(16,2,310).
impossibility(17,4,134).
impossibility(17,5,240).
impossibility(17,4,250).
impossibility(20,4,361).
impossibility(12,5,77).
impossibility(2,6,230).
impossibility(5,2,84).
impossibility(14,2,14).
impossibility(17,2,352).
impossibility(4,1,209).
impossibility(12,5,342).
impossibility(18,5,168).
impossibility(13,3,259).
impossibility(8,1,279).
impossibility(19,3,290).
impossibility(1,1,207).
impossibility(4,2,253).
impossibility(12,3,126).
impossibility(13,1,121).
impossibility(16,5,205).
impossibility(5,3,286).
impossibility(9,5,175).
impossibility(4,4,172).
impossibility(11,6,297).
impossibility(8,2,239).
impossibility(3,2,299).
impossibility(10,6,265).
impossibility(19,4,265).
impossibility(13,2,238).
impossibility(17,5,126).
impossibility(5,5,131).
impossibility(14,2,159).
impossibility(4,1,184).
impossibility(19,3,78).
impossibility(14,5,305).
impossibility(3,1,29).
impossibility(11,2,96).
impossibility(7,4,57).
impossibility(3,5,305).
impossibility(10,4,77).
impossibility(14,4,268).
impossibility(20,5,42).
impossibility(11,2,70).
impossibility(5,1,56).
impossibility(2,4,353).
impossibility(13,1,305).
impossibility(19,2,19).
impossibility(17,6,33).
impossibility(16,3,354).
impossibility(15,2,44).
impossibility(18,6,5).
impossibility(15,4,79).
impossibility(11,1,30).
impossibility(1,5,7).
impossibility(1,6,344).
impossibility(17,4,281).
impossibility(19,3,274).
impossibility(1,1,196).
impossibility(18,6,270).
impossibility(17,2,182).
impossibility(13,3,321).
impossibility(15,3,303).
impossibility(14,6,316).
impossibility(16,5,137).
impossibility(17,5,150).
impossibility(9,1,38).
impossibility(2,5,211).
impossibility(2,6,284).
impossibility(13,2,41).
impossibility(14,6,365).
impossibility(15,5,263).
impossibility(15,1,77).
impossibility(12,2,349).
impossibility(3,3,146).
impossibility(7,6,227).
impossibility(10,6,178).
impossibility(5,6,175).
impossibility(17,1,17).
impossibility(16,5,271).
impossibility(5,2,39).
impossibility(14,6,111).
impossibility(18,2,26).
impossibility(14,2,148).
impossibility(15,1,127).
impossibility(13,2,304).
impossibility(5,5,291).
impossibility(8,1,313).
impossibility(6,6,181).
impossibility(16,1,69).
impossibility(3,3,248).
impossibility(5,6,172).
impossibility(19,2,127).
impossibility(8,2,213).
impossibility(5,1,342).
impossibility(8,3,27).
impossibility(4,3,14).
impossibility(19,3,13).
impossibility(5,6,195).
impossibility(16,3,61).
impossibility(11,5,250).
impossibility(7,6,150).
impossibility(2,3,351).
impossibility(12,2,361).
impossibility(16,5,175).
impossibility(7,4,14).
impossibility(1,5,148).
impossibility(15,6,346).
impossibility(2,5,244).
impossibility(3,1,211).
impossibility(6,2,283).
impossibility(11,1,346).
impossibility(13,1,262).
impossibility(11,3,230).
impossibility(9,6,327).
impossibility(20,4,54).
impossibility(20,4,257).
impossibility(3,6,277).
impossibility(8,6,206).
impossibility(10,2,242).
impossibility(6,4,239).
impossibility(16,5,103).
impossibility(10,4,192).
impossibility(10,1,358).
impossibility(7,6,138).
impossibility(16,6,309).
impossibility(9,6,187).
impossibility(12,5,316).
impossibility(8,1,352).
impossibility(4,4,298).
impossibility(2,6,78).
impossibility(9,3,90).
impossibility(6,2,126).
impossibility(14,3,285).
impossibility(14,3,219).
impossibility(3,5,98).
impossibility(4,1,155).
impossibility(11,2,267).
impossibility(4,2,40).
impossibility(11,2,271).
impossibility(13,3,71).
impossibility(11,6,137).
impossibility(8,2,108).
impossibility(5,6,177).
impossibility(13,1,235).
impossibility(4,5,336).
impossibility(19,5,211).
impossibility(14,4,305).
impossibility(13,2,17).
impossibility(18,4,230).
impossibility(17,1,35).
impossibility(7,6,257).
impossibility(8,1,132).
impossibility(16,3,10).
impossibility(2,1,80).
impossibility(4,2,124).
impossibility(12,1,320).
impossibility(11,2,62).
impossibility(2,5,195).
impossibility(18,3,338).
impossibility(20,6,13).
impossibility(19,6,199).
impossibility(4,5,143).
impossibility(13,2,267).
impossibility(1,6,190).
impossibility(3,2,92).
impossibility(9,6,157).
impossibility(13,2,214).
impossibility(19,4,107).
impossibility(2,3,2).
impossibility(11,2,240).
impossibility(17,4,8).
impossibility(19,3,220).
impossibility(2,2,82).
impossibility(13,6,60).
impossibility(3,2,295).
impossibility(3,4,98).
impossibility(9,2,233).
impossibility(17,5,156).
impossibility(20,2,285).
impossibility(4,6,303).
impossibility(13,6,268).
impossibility(9,5,218).
impossibility(17,4,221).
impossibility(12,1,236).
impossibility(2,5,4).
impossibility(4,1,60).
impossibility(9,3,87).
impossibility(8,6,335).
impossibility(4,6,222).
impossibility(15,3,347).
impossibility(5,6,351).
impossibility(11,3,345).
impossibility(2,3,307).
impossibility(15,1,111).
impossibility(6,1,277).
impossibility(12,1,27).
impossibility(2,3,83).
impossibility(7,2,236).
impossibility(17,5,246).
impossibility(7,2,87).
impossibility(17,5,40).
impossibility(2,2,138).
impossibility(7,6,238).
impossibility(6,2,219).
impossibility(4,2,180).
impossibility(8,6,36).
impossibility(18,4,237).
impossibility(12,3,359).
impossibility(10,6,332).
impossibility(12,6,70).
impossibility(6,5,84).
impossibility(20,3,60).
impossibility(1,4,123).
impossibility(11,3,1).
impossibility(2,4,55).
impossibility(6,2,61).
impossibility(10,6,285).
impossibility(9,1,167).
impossibility(5,6,314).
impossibility(8,2,42).
impossibility(6,1,122).
impossibility(8,4,10).
impossibility(11,5,87).
impossibility(19,4,203).
impossibility(11,2,51).
impossibility(18,3,9).
impossibility(15,5,68).
impossibility(10,1,126).
impossibility(11,3,102).
impossibility(15,6,350).
impossibility(20,2,230).
impossibility(16,6,285).
impossibility(17,2,319).
impossibility(10,5,263).
impossibility(15,5,193).
impossibility(8,4,123).
impossibility(19,2,55).
impossibility(15,1,294).
impossibility(12,6,172).
impossibility(15,4,284).
impossibility(1,4,233).
impossibility(2,1,13).
impossibility(3,4,268).
impossibility(10,1,206).
impossibility(18,2,202).
impossibility(12,6,144).
impossibility(8,3,196).
impossibility(3,2,300).
impossibility(14,4,89).
impossibility(7,2,302).
impossibility(6,5,22).
impossibility(8,6,1).
impossibility(3,1,220).
impossibility(10,6,196).
impossibility(14,3,163).
impossibility(11,2,163).
impossibility(16,1,214).
impossibility(13,5,67).
impossibility(20,4,25).
impossibility(12,6,121).
impossibility(7,6,235).
impossibility(12,2,341).
impossibility(7,2,187).
impossibility(8,6,350).
impossibility(11,6,131).
impossibility(11,1,6).
impossibility(17,2,125).
impossibility(16,3,330).
impossibility(13,1,62).
impossibility(6,5,67).
impossibility(3,1,321).
impossibility(12,2,318).
impossibility(14,5,297).
impossibility(5,2,339).
impossibility(17,1,242).
impossibility(12,4,362).
impossibility(20,6,1).
impossibility(1,2,275).
impossibility(8,5,97).
impossibility(10,5,231).