impossibility(1,3,114).
impossibility(12,3,11).
impossibility(13,6,48).
impossibility(20,4,40).
impossibility(11,4,311).
impossibility(19,6,220).
impossibility(9,5,6).
impossibility(2,1,244).
impossibility(18,5,40).
impossibility(15,6,160).
impossibility(13,4,58).
impossibility(1,3,179).
impossibility(17,2,194).
impossibility(8,4,270).
impossibility(5,3,56).
impossibility(12,6,72).
impossibility(14,5,65).
impossibility(17,2,225).
impossibility(8,4,215).
impossibility(1,4,130).
impossibility(8,6,311).
impossibility(8,4,12).
impossibility(17,3,118).
impossibility(4,3,151).
impossibility(16,1,302).
impossibility(7,3,258).
impossibility(10,6,210).
impossibility(17,4,129).
impossibility(17,1,37).
impossibility(16,2,310).
impossibility(17,4,134).
impossibility(17,5,240).
impossibility(17,4,250).
impossibility(20,4,361).
impossibility(12,5,77).
impossibility(2,6,230).
impossibility(5,2,84).
impossibility(14,2,14).
impossibility(17,2,352).
impossibility(4,1,209).
impossibility(12,5,342).
impossibility(18,5,168).
impossibility(13,3,259).
impossibility(8,1,279).
impossibility(19,3,290).
impossibility(1,1,207).
impossibility(4,2,253).
impossibility(12,3,126).
impossibility(13,1,121).
impossibility(16,5,205).
impossibility(5,3,286).
impossibility(9,5,175).
impossibility(4,4,172).
impossibility(11,6,297).
impossibility(8,2,239).
impossibility(3,2,299).
impossibility(10,6,265).
impossibility(19,4,265).
impossibility(13,2,238).
impossibility(17,5,126).
impossibility(5,5,131).
impossibility(14,2,159).
impossibility(4,1,184).
impossibility(19,3,78).
impossibility(14,5,305).
impossibility(3,1,29).
impossibility(11,2,96).
impossibility(7,4,57).
impossibility(3,5,305).
impossibility(10,4,77).
impossibility(14,4,268).
impossibility(20,5,42).
impossibility(11,2,70).
impossibility(5,1,56).
impossibility(2,4,353).
impossibility(13,1,305).
impossibility(19,2,19).
impossibility(17,6,33).
impossibility(16,3,354).
impossibility(15,2,44).
impossibility(18,6,5).
impossibility(15,4,79).
impossibility(11,1,30).
impossibility(1,5,7).
impossibility(1,6,344).
impossibility(17,4,281).
impossibility(19,3,274).
impossibility(1,1,196).
impossibility(18,6,270).
impossibility(17,2,182).
impossibility(13,3,321).
impossibility(15,3,303).
impossibility(14,6,316).
impossibility(16,5,137).
impossibility(17,5,150).
impossibility(9,1,38).
impossibility(2,5,211).
impossibility(2,6,284).
impossibility(13,2,41).
impossibility(14,6,365).
impossibility(15,5,263).
impossibility(15,1,77).
impossibility(12,2,349).
impossibility(3,3,146).
impossibility(7,6,227).
impossibility(10,6,178).
impossibility(5,6,175).
impossibility(17,1,17).
impossibility(16,5,271).
impossibility(5,2,39).
impossibility(14,6,111).
impossibility(18,2,26).
impossibility(14,2,148).
impossibility(15,1,127).
impossibility(13,2,304).
impossibility(5,5,291).
impossibility(8,1,313).
impossibility(6,6,181).
impossibility(16,1,69).
impossibility(3,3,248).
impossibility(5,6,172).
impossibility(19,2,127).
impossibility(8,2,213).
impossibility(5,1,342).
impossibility(8,3,27).
impossibility(4,3,14).
impossibility(19,3,13).
impossibility(5,6,195).
impossibility(16,3,61).
impossibility(11,5,250).
impossibility(7,6,150).
impossibility(2,3,351).
impossibility(12,2,361).
impossibility(16,5,175).
impossibility(7,4,14).
impossibility(1,5,148).
impossibility(15,6,346).
impossibility(2,5,244).
impossibility(3,1,211).
impossibility(6,2,283).