impossibility(1,3,114).
impossibility(12,3,11).
impossibility(13,6,48).
impossibility(20,4,40).
impossibility(11,4,311).
impossibility(19,6,220).
impossibility(9,5,6).
impossibility(2,1,244).
impossibility(18,5,40).
impossibility(15,6,160).
impossibility(13,4,58).
impossibility(1,3,179).
impossibility(17,2,194).
impossibility(8,4,270).
impossibility(5,3,56).
impossibility(12,6,72).
impossibility(14,5,65).
impossibility(17,2,225).
impossibility(8,4,215).
impossibility(1,4,130).
impossibility(8,6,311).
impossibility(8,4,12).
impossibility(17,3,118).
impossibility(4,3,151).
impossibility(16,1,302).
impossibility(7,3,258).
impossibility(10,6,210).
impossibility(17,4,129).
impossibility(17,1,37).
impossibility(16,2,310).
impossibility(17,4,134).
impossibility(17,5,240).
impossibility(17,4,250).
impossibility(20,4,361).
impossibility(12,5,77).
impossibility(2,6,230).
impossibility(5,2,84).
impossibility(14,2,14).
impossibility(17,2,352).
impossibility(4,1,209).
impossibility(12,5,342).
impossibility(18,5,168).
impossibility(13,3,259).
impossibility(8,1,279).
impossibility(19,3,290).
impossibility(1,1,207).
impossibility(4,2,253).
impossibility(12,3,126).
impossibility(13,1,121).
impossibility(16,5,205).
impossibility(5,3,286).
impossibility(9,5,175).
impossibility(4,4,172).
impossibility(11,6,297).
impossibility(8,2,239).
impossibility(3,2,299).
impossibility(10,6,265).
impossibility(19,4,265).
impossibility(13,2,238).
impossibility(17,5,126).
impossibility(5,5,131).
impossibility(14,2,159).
impossibility(4,1,184).
impossibility(19,3,78).
impossibility(14,5,305).
impossibility(3,1,29).
impossibility(11,2,96).
impossibility(7,4,57).
impossibility(3,5,305).
impossibility(10,4,77).
impossibility(14,4,268).
impossibility(20,5,42).
impossibility(11,2,70).
impossibility(5,1,56).
impossibility(2,4,353).
impossibility(13,1,305).
impossibility(19,2,19).
impossibility(17,6,33).
impossibility(16,3,354).
impossibility(15,2,44).
impossibility(18,6,5).
impossibility(15,4,79).
impossibility(11,1,30).
impossibility(1,5,7).
impossibility(1,6,344).
impossibility(17,4,281).
impossibility(19,3,274).
impossibility(1,1,196).
impossibility(18,6,270).
impossibility(17,2,182).
impossibility(13,3,321).
impossibility(15,3,303).
impossibility(14,6,316).
impossibility(16,5,137).
impossibility(17,5,150).
impossibility(9,1,38).
impossibility(2,5,211).
impossibility(2,6,284).
impossibility(13,2,41).
impossibility(14,6,365).
impossibility(15,5,263).
impossibility(15,1,77).
impossibility(12,2,349).
impossibility(3,3,146).
impossibility(7,6,227).
impossibility(10,6,178).
impossibility(5,6,175).
impossibility(17,1,17).
impossibility(16,5,271).
impossibility(5,2,39).
impossibility(14,6,111).
impossibility(18,2,26).
impossibility(14,2,148).
impossibility(15,1,127).
impossibility(13,2,304).
impossibility(5,5,291).
impossibility(8,1,313).
impossibility(6,6,181).
impossibility(16,1,69).
impossibility(3,3,248).
impossibility(5,6,172).
impossibility(19,2,127).
impossibility(8,2,213).
impossibility(5,1,342).
impossibility(8,3,27).
impossibility(4,3,14).
impossibility(19,3,13).
impossibility(5,6,195).
impossibility(16,3,61).
impossibility(11,5,250).
impossibility(7,6,150).
impossibility(2,3,351).
impossibility(12,2,361).
impossibility(16,5,175).
impossibility(7,4,14).
impossibility(1,5,148).
impossibility(15,6,346).
impossibility(2,5,244).
impossibility(3,1,211).
impossibility(6,2,283).
impossibility(11,1,346).
impossibility(13,1,262).
impossibility(11,3,230).
impossibility(9,6,327).
impossibility(20,4,54).
impossibility(20,4,257).
impossibility(3,6,277).
impossibility(8,6,206).
impossibility(10,2,242).
impossibility(6,4,239).
impossibility(16,5,103).
impossibility(10,4,192).
impossibility(10,1,358).
impossibility(7,6,138).
impossibility(16,6,309).
impossibility(9,6,187).
impossibility(12,5,316).
impossibility(8,1,352).
impossibility(4,4,298).
impossibility(2,6,78).
impossibility(9,3,90).
impossibility(6,2,126).
impossibility(14,3,285).
impossibility(14,3,219).
impossibility(3,5,98).
impossibility(4,1,155).
impossibility(11,2,267).
impossibility(4,2,40).
impossibility(11,2,271).
impossibility(13,3,71).
impossibility(11,6,137).
impossibility(8,2,108).
impossibility(5,6,177).
impossibility(13,1,235).
impossibility(4,5,336).
impossibility(19,5,211).
impossibility(14,4,305).
impossibility(13,2,17).
impossibility(18,4,230).
impossibility(17,1,35).
impossibility(7,6,257).
impossibility(8,1,132).
impossibility(16,3,10).
impossibility(2,1,80).
impossibility(4,2,124).
impossibility(12,1,320).
impossibility(11,2,62).
impossibility(2,5,195).
impossibility(18,3,338).
impossibility(20,6,13).
impossibility(19,6,199).
impossibility(4,5,143).
impossibility(13,2,267).
impossibility(1,6,190).
impossibility(3,2,92).
impossibility(9,6,157).
impossibility(13,2,214).
impossibility(19,4,107).
impossibility(2,3,2).
impossibility(11,2,240).
impossibility(17,4,8).
impossibility(19,3,220).
impossibility(2,2,82).
impossibility(13,6,60).
impossibility(3,2,295).
impossibility(3,4,98).
impossibility(9,2,233).
impossibility(17,5,156).
impossibility(20,2,285).
impossibility(4,6,303).
impossibility(13,6,268).
impossibility(9,5,218).
impossibility(17,4,221).
impossibility(12,1,236).
impossibility(2,5,4).
impossibility(4,1,60).
impossibility(9,3,87).
impossibility(8,6,335).
impossibility(4,6,222).
impossibility(15,3,347).
impossibility(5,6,351).
impossibility(11,3,345).
impossibility(2,3,307).
impossibility(15,1,111).
impossibility(6,1,277).
impossibility(12,1,27).
impossibility(2,3,83).
impossibility(7,2,236).
impossibility(17,5,246).
impossibility(7,2,87).
impossibility(17,5,40).
impossibility(2,2,138).
impossibility(7,6,238).
impossibility(6,2,219).
impossibility(4,2,180).
impossibility(8,6,36).
impossibility(18,4,237).
impossibility(12,3,359).
impossibility(10,6,332).
impossibility(12,6,70).
impossibility(6,5,84).
impossibility(20,3,60).
impossibility(1,4,123).
impossibility(11,3,1).
impossibility(2,4,55).
impossibility(6,2,61).
impossibility(10,6,285).
impossibility(9,1,167).
impossibility(5,6,314).
impossibility(8,2,42).
impossibility(6,1,122).
impossibility(8,4,10).
impossibility(11,5,87).
impossibility(19,4,203).
impossibility(11,2,51).
impossibility(18,3,9).
impossibility(15,5,68).
impossibility(10,1,126).
impossibility(11,3,102).
impossibility(15,6,350).
impossibility(20,2,230).
impossibility(16,6,285).
impossibility(17,2,319).
impossibility(10,5,263).
impossibility(15,5,193).
impossibility(8,4,123).
impossibility(19,2,55).
impossibility(15,1,294).
impossibility(12,6,172).
impossibility(15,4,284).
impossibility(1,4,233).
impossibility(2,1,13).
impossibility(3,4,268).
impossibility(10,1,206).
impossibility(18,2,202).
impossibility(12,6,144).
impossibility(8,3,196).
impossibility(3,2,300).
impossibility(14,4,89).
impossibility(7,2,302).
impossibility(6,5,22).
impossibility(8,6,1).
impossibility(3,1,220).
impossibility(10,6,196).
impossibility(14,3,163).
impossibility(11,2,163).
impossibility(16,1,214).
impossibility(13,5,67).
impossibility(20,4,25).
impossibility(12,6,121).
impossibility(7,6,235).
impossibility(12,2,341).
impossibility(7,2,187).
impossibility(8,6,350).
impossibility(11,6,131).
impossibility(11,1,6).
impossibility(17,2,125).
impossibility(16,3,330).
impossibility(13,1,62).
impossibility(6,5,67).
impossibility(3,1,321).
impossibility(12,2,318).
impossibility(14,5,297).
impossibility(5,2,339).
impossibility(17,1,242).
impossibility(12,4,362).
impossibility(20,6,1).
impossibility(1,2,275).
impossibility(8,5,97).
impossibility(10,5,231).
impossibility(7,4,51).
impossibility(5,2,259).
impossibility(9,1,340).
impossibility(19,3,107).
impossibility(5,1,248).
impossibility(8,3,145).
impossibility(18,5,16).
impossibility(4,3,150).
impossibility(19,4,195).
impossibility(2,1,238).
impossibility(7,2,30).
impossibility(7,5,38).
impossibility(9,3,308).
impossibility(13,6,76).
impossibility(9,5,312).
impossibility(10,6,87).
impossibility(9,1,302).
impossibility(6,3,106).
impossibility(16,4,296).
impossibility(2,5,298).
impossibility(1,3,92).
impossibility(13,1,229).
impossibility(4,4,235).
impossibility(4,4,240).
impossibility(11,2,217).
impossibility(18,3,55).
impossibility(14,1,163).
impossibility(19,3,198).
impossibility(5,2,293).
impossibility(2,4,294).
impossibility(1,1,8).
impossibility(20,3,180).
impossibility(19,1,100).
impossibility(8,5,328).
impossibility(7,4,317).
impossibility(1,2,86).
impossibility(18,2,255).
impossibility(10,3,90).
impossibility(20,4,66).
impossibility(14,3,365).
impossibility(3,2,96).
impossibility(9,1,145).
impossibility(4,1,3).
impossibility(14,3,269).
impossibility(7,2,110).
impossibility(11,3,277).
impossibility(1,5,99).
impossibility(14,6,94).
impossibility(18,3,295).
impossibility(19,4,132).
impossibility(16,5,197).
impossibility(13,2,220).
impossibility(17,2,265).
impossibility(2,6,108).
impossibility(20,6,316).
impossibility(9,4,238).
impossibility(7,5,213).
impossibility(13,1,117).
impossibility(13,5,227).
impossibility(16,5,222).
impossibility(6,4,318).
impossibility(2,5,68).
impossibility(14,5,350).
impossibility(20,4,232).
impossibility(9,6,19).
impossibility(2,3,325).
impossibility(8,4,294).
impossibility(10,6,64).
impossibility(7,3,262).
impossibility(13,2,81).
impossibility(16,4,134).
impossibility(19,3,354).
impossibility(3,4,358).
impossibility(3,3,251).
impossibility(20,4,8).
impossibility(2,5,127).
impossibility(14,4,362).
impossibility(8,2,23).
impossibility(10,2,299).
impossibility(14,6,76).
impossibility(6,4,4).
impossibility(1,1,80).
impossibility(2,1,177).
impossibility(10,6,102).
impossibility(4,6,209).
impossibility(20,1,17).
impossibility(5,2,72).
impossibility(20,3,88).
impossibility(18,6,243).
impossibility(7,3,305).
impossibility(10,3,329).
impossibility(2,6,205).
impossibility(14,1,337).
impossibility(16,4,123).
impossibility(12,1,43).
impossibility(13,6,178).
impossibility(12,3,352).
impossibility(15,1,65).
impossibility(5,1,343).
impossibility(2,1,116).
impossibility(1,4,305).
impossibility(5,2,34).
impossibility(20,2,89).
impossibility(19,1,145).
impossibility(19,2,26).
impossibility(12,1,38).
impossibility(12,3,16).
impossibility(19,6,10).
impossibility(6,2,27).
impossibility(4,1,251).
impossibility(19,1,173).
impossibility(1,4,217).
impossibility(9,3,236).
impossibility(18,1,122).
impossibility(8,1,285).
impossibility(6,4,68).
impossibility(3,2,175).
impossibility(4,2,151).
impossibility(8,6,361).
impossibility(17,2,151).
impossibility(17,3,52).
impossibility(3,6,317).
impossibility(13,3,11).
impossibility(16,4,59).
impossibility(7,3,82).
impossibility(20,6,273).
impossibility(19,2,7).
impossibility(19,4,314).
impossibility(5,1,292).
impossibility(16,3,297).
impossibility(20,3,320).
impossibility(1,4,216).
impossibility(16,2,104).
impossibility(10,3,36).
impossibility(4,6,74).
impossibility(4,6,5).
impossibility(4,3,161).
impossibility(5,2,253).
impossibility(16,6,208).
impossibility(3,6,163).
impossibility(10,4,152).
impossibility(5,4,64).
impossibility(19,3,315).
impossibility(2,4,287).
impossibility(18,5,184).
impossibility(9,1,255).
impossibility(20,6,264).
impossibility(3,6,141).
impossibility(16,5,141).
impossibility(4,5,193).
impossibility(17,6,100).
impossibility(8,3,165).
impossibility(18,6,365).
impossibility(8,3,57).
impossibility(12,1,295).
impossibility(14,5,202).
impossibility(2,5,289).
impossibility(19,6,29).
impossibility(5,1,282).
impossibility(3,3,16).
impossibility(8,5,232).
impossibility(13,6,145).
impossibility(18,5,332).
impossibility(18,4,56).
impossibility(19,6,129).
impossibility(3,3,268).
impossibility(7,6,5).
impossibility(7,2,101).
impossibility(10,1,272).
impossibility(2,4,147).
impossibility(8,6,217).
impossibility(12,6,49).
impossibility(7,5,147).
impossibility(17,4,147).
impossibility(7,6,305).
impossibility(5,5,97).
impossibility(11,5,1).
impossibility(11,3,137).
impossibility(18,3,109).
impossibility(12,3,335).
impossibility(5,6,95).
impossibility(8,4,336).
impossibility(3,2,334).
impossibility(18,1,85).
impossibility(19,3,179).
impossibility(12,3,93).
impossibility(5,1,259).
impossibility(11,5,253).
impossibility(18,3,316).
impossibility(14,2,170).
impossibility(14,2,129).
impossibility(5,1,182).
impossibility(4,3,342).
impossibility(8,1,63).
impossibility(10,6,6).
impossibility(4,4,48).
impossibility(11,1,152).
impossibility(14,1,125).
impossibility(17,3,316).
impossibility(10,3,214).
impossibility(1,6,185).
impossibility(11,2,80).
impossibility(14,1,1).
impossibility(5,5,348).
impossibility(9,1,204).
impossibility(6,5,157).
impossibility(5,1,283).
impossibility(15,4,225).
impossibility(4,5,328).
impossibility(8,5,195).
impossibility(2,3,280).
impossibility(9,3,133).
impossibility(1,2,51).
impossibility(14,5,16).
impossibility(18,1,22).
impossibility(7,3,195).
impossibility(19,1,32).
impossibility(6,6,231).
impossibility(10,2,92).
impossibility(4,3,166).
impossibility(2,2,186).
impossibility(9,4,195).
impossibility(2,4,5).
impossibility(2,6,162).
impossibility(14,4,120).
impossibility(12,3,311).
impossibility(7,3,7).
impossibility(4,1,259).
impossibility(3,6,158).
impossibility(4,3,319).
impossibility(1,6,306).
impossibility(9,2,249).
impossibility(2,1,2).
impossibility(20,1,90).
impossibility(12,5,118).
impossibility(16,2,200).
impossibility(18,4,332).
impossibility(12,1,119).
impossibility(10,5,205).
impossibility(20,2,220).
impossibility(17,2,109).
impossibility(5,3,240).
impossibility(11,4,78).
impossibility(8,6,117).
impossibility(16,1,277).
impossibility(11,6,62).
impossibility(5,4,69).
impossibility(12,4,134).
impossibility(10,6,358).
impossibility(5,1,249).
impossibility(17,6,364).
impossibility(14,5,129).
impossibility(8,5,318).
impossibility(4,5,64).
impossibility(11,2,308).
impossibility(6,5,26).
impossibility(16,3,128).
impossibility(6,3,209).
impossibility(14,1,324).
impossibility(8,4,192).
impossibility(5,6,286).
impossibility(17,2,311).
impossibility(17,3,22).
impossibility(19,5,223).
impossibility(7,3,166).
impossibility(2,1,91).
impossibility(4,3,198).
impossibility(19,5,219).
impossibility(6,3,226).
impossibility(15,5,117).
impossibility(8,6,18).
impossibility(15,3,103).
impossibility(6,5,343).
impossibility(2,3,66).
impossibility(3,5,352).
impossibility(16,6,281).
impossibility(17,4,11).
impossibility(20,1,163).
impossibility(9,4,194).
impossibility(14,5,75).
impossibility(16,2,344).
impossibility(5,1,361).
impossibility(13,5,207).
impossibility(10,4,26).
impossibility(15,3,105).
impossibility(3,5,243).
impossibility(13,6,282).
impossibility(14,6,142).
impossibility(18,6,221).
impossibility(1,6,213).
impossibility(10,6,70).
impossibility(13,2,191).
impossibility(10,2,327).
impossibility(12,2,246).
impossibility(17,4,113).
impossibility(20,2,124).
impossibility(11,1,163).
impossibility(16,5,246).
impossibility(12,6,346).
impossibility(9,6,274).
impossibility(7,2,205).
impossibility(6,1,157).
impossibility(15,6,146).
impossibility(20,2,365).
impossibility(12,4,308).
impossibility(11,2,7).
impossibility(14,3,17).
impossibility(10,2,4).
impossibility(19,5,1).
impossibility(18,5,114).
impossibility(1,4,178).
impossibility(3,3,79).
impossibility(17,1,254).
impossibility(18,5,233).
impossibility(19,1,281).
impossibility(14,2,347).
impossibility(3,2,100).
impossibility(7,5,198).
impossibility(7,3,157).
impossibility(2,5,100).
impossibility(10,4,361).
impossibility(18,5,143).
impossibility(20,3,120).
impossibility(12,5,28).
impossibility(13,2,235).
impossibility(7,4,21).
impossibility(18,5,235).
impossibility(15,1,29).
impossibility(12,5,70).
impossibility(13,5,165).
impossibility(8,3,24).
impossibility(9,1,4).
impossibility(17,3,89).
impossibility(14,2,332).
impossibility(19,5,346).
impossibility(20,6,175).
impossibility(6,4,12).
impossibility(7,6,298).
impossibility(8,4,257).
impossibility(8,4,117).
impossibility(17,3,345).
impossibility(2,5,227).
impossibility(10,2,343).
impossibility(2,1,286).
impossibility(15,1,108).
impossibility(6,6,319).
impossibility(3,6,129).
impossibility(2,4,286).
impossibility(9,4,275).
impossibility(12,3,236).
impossibility(11,4,326).
impossibility(20,5,250).
impossibility(13,3,265).
impossibility(19,3,11).
impossibility(1,4,91).
impossibility(2,2,236).
impossibility(14,4,221).
impossibility(9,1,317).
impossibility(4,1,314).
impossibility(17,5,243).